
Version,
  24.2;                                   !- Version Identifier

Timestep,
  4;                                      !- Number of Timesteps per Hour

LifeCycleCost:Parameters,
  Life Cycle Cost Parameters,             !- Name
  EndOfYear,                              !- Discounting Convention
  ConstantDollar,                         !- Inflation Approach
  0.03,                                   !- Real Discount Rate
  ,                                       !- Nominal Discount Rate
  ,                                       !- Inflation
  ,                                       !- Base Date Month
  2011,                                   !- Base Date Year
  ,                                       !- Service Date Month
  2011,                                   !- Service Date Year
  25,                                     !- Length of Study Period in Years
  ,                                       !- Tax rate
  None;                                   !- Depreciation Method

LifeCycleCost:UsePriceEscalation,
  U.S. Avg  Commercial-Electricity,       !- Name
  Electricity,                            !- Resource
  2011,                                   !- Escalation Start Year
  January,                                !- Escalation Start Month
  0.9838,                                 !- Year Escalation 1
  0.9730,                                 !- Year Escalation 2
  0.9632,                                 !- Year Escalation 3
  0.9611,                                 !- Year Escalation 4
  0.9571,                                 !- Year Escalation 5
  0.9553,                                 !- Year Escalation 6
  0.9539,                                 !- Year Escalation 7
  0.9521,                                 !- Year Escalation 8
  0.9546,                                 !- Year Escalation 9
  0.9550,                                 !- Year Escalation 10
  0.9553,                                 !- Year Escalation 11
  0.9564,                                 !- Year Escalation 12
  0.9575,                                 !- Year Escalation 13
  0.9596,                                 !- Year Escalation 14
  0.9618,                                 !- Year Escalation 15
  0.9614,                                 !- Year Escalation 16
  0.9618,                                 !- Year Escalation 17
  0.9618,                                 !- Year Escalation 18
  0.9593,                                 !- Year Escalation 19
  0.9589,                                 !- Year Escalation 20
  0.9607,                                 !- Year Escalation 21
  0.9625,                                 !- Year Escalation 22
  0.9650,                                 !- Year Escalation 23
  0.9708,                                 !- Year Escalation 24
  0.9751,                                 !- Year Escalation 25
  0.9762,                                 !- Year Escalation 26
  0.9766,                                 !- Year Escalation 27
  0.9766,                                 !- Year Escalation 28
  0.9769,                                 !- Year Escalation 29
  0.9773;                                 !- Year Escalation 30

LifeCycleCost:UsePriceEscalation,
  U.S. Avg  Commercial-Distillate Oil,    !- Name
  FuelOilNo1,                             !- Resource
  2011,                                   !- Escalation Start Year
  January,                                !- Escalation Start Month
  0.9714,                                 !- Year Escalation 1
  0.9730,                                 !- Year Escalation 2
  0.9942,                                 !- Year Escalation 3
  1.0164,                                 !- Year Escalation 4
  1.0541,                                 !- Year Escalation 5
  1.0928,                                 !- Year Escalation 6
  1.1267,                                 !- Year Escalation 7
  1.1580,                                 !- Year Escalation 8
  1.1792,                                 !- Year Escalation 9
  1.1967,                                 !- Year Escalation 10
  1.2200,                                 !- Year Escalation 11
  1.2333,                                 !- Year Escalation 12
  1.2566,                                 !- Year Escalation 13
  1.2709,                                 !- Year Escalation 14
  1.2826,                                 !- Year Escalation 15
  1.2985,                                 !- Year Escalation 16
  1.3102,                                 !- Year Escalation 17
  1.3250,                                 !- Year Escalation 18
  1.3261,                                 !- Year Escalation 19
  1.3282,                                 !- Year Escalation 20
  1.3324,                                 !- Year Escalation 21
  1.3356,                                 !- Year Escalation 22
  1.3431,                                 !- Year Escalation 23
  1.3510,                                 !- Year Escalation 24
  1.3568,                                 !- Year Escalation 25
  1.3606,                                 !- Year Escalation 26
  1.3637,                                 !- Year Escalation 27
  1.3674,                                 !- Year Escalation 28
  1.3706,                                 !- Year Escalation 29
  1.3743;                                 !- Year Escalation 30

LifeCycleCost:UsePriceEscalation,
  U.S. Avg  Commercial-Residual Oil,      !- Name
  FuelOilNo2,                             !- Resource
  2011,                                   !- Escalation Start Year
  January,                                !- Escalation Start Month
  0.8469,                                 !- Year Escalation 1
  0.8257,                                 !- Year Escalation 2
  0.8681,                                 !- Year Escalation 3
  0.8988,                                 !- Year Escalation 4
  0.9289,                                 !- Year Escalation 5
  0.9604,                                 !- Year Escalation 6
  0.9897,                                 !- Year Escalation 7
  1.0075,                                 !- Year Escalation 8
  1.0314,                                 !- Year Escalation 9
  1.0554,                                 !- Year Escalation 10
  1.0861,                                 !- Year Escalation 11
  1.1278,                                 !- Year Escalation 12
  1.1497,                                 !- Year Escalation 13
  1.1620,                                 !- Year Escalation 14
  1.1743,                                 !- Year Escalation 15
  1.1852,                                 !- Year Escalation 16
  1.1948,                                 !- Year Escalation 17
  1.2037,                                 !- Year Escalation 18
  1.2071,                                 !- Year Escalation 19
  1.2119,                                 !- Year Escalation 20
  1.2139,                                 !- Year Escalation 21
  1.2194,                                 !- Year Escalation 22
  1.2276,                                 !- Year Escalation 23
  1.2365,                                 !- Year Escalation 24
  1.2420,                                 !- Year Escalation 25
  1.2461,                                 !- Year Escalation 26
  1.2509,                                 !- Year Escalation 27
  1.2550,                                 !- Year Escalation 28
  1.2591,                                 !- Year Escalation 29
  1.2638;                                 !- Year Escalation 30

LifeCycleCost:UsePriceEscalation,
  U.S. Avg  Commercial-Natural gas,       !- Name
  NaturalGas,                             !- Resource
  2011,                                   !- Escalation Start Year
  January,                                !- Escalation Start Month
  0.9823,                                 !- Year Escalation 1
  0.9557,                                 !- Year Escalation 2
  0.9279,                                 !- Year Escalation 3
  0.9257,                                 !- Year Escalation 4
  0.9346,                                 !- Year Escalation 5
  0.9412,                                 !- Year Escalation 6
  0.9512,                                 !- Year Escalation 7
  0.9645,                                 !- Year Escalation 8
  0.9856,                                 !- Year Escalation 9
  1.0067,                                 !- Year Escalation 10
  1.0222,                                 !- Year Escalation 11
  1.0410,                                 !- Year Escalation 12
  1.0610,                                 !- Year Escalation 13
  1.0787,                                 !- Year Escalation 14
  1.0942,                                 !- Year Escalation 15
  1.1098,                                 !- Year Escalation 16
  1.1220,                                 !- Year Escalation 17
  1.1308,                                 !- Year Escalation 18
  1.1386,                                 !- Year Escalation 19
  1.1486,                                 !- Year Escalation 20
  1.1619,                                 !- Year Escalation 21
  1.1763,                                 !- Year Escalation 22
  1.1918,                                 !- Year Escalation 23
  1.2118,                                 !- Year Escalation 24
  1.2284,                                 !- Year Escalation 25
  1.2439,                                 !- Year Escalation 26
  1.2605,                                 !- Year Escalation 27
  1.2772,                                 !- Year Escalation 28
  1.2938,                                 !- Year Escalation 29
  1.3115;                                 !- Year Escalation 30

LifeCycleCost:UsePriceEscalation,
  U.S. Avg  Commercial-Coal,              !- Name
  Coal,                                   !- Resource
  2011,                                   !- Escalation Start Year
  January,                                !- Escalation Start Month
  0.9970,                                 !- Year Escalation 1
  1.0089,                                 !- Year Escalation 2
  1.0089,                                 !- Year Escalation 3
  0.9941,                                 !- Year Escalation 4
  0.9941,                                 !- Year Escalation 5
  1.0000,                                 !- Year Escalation 6
  1.0030,                                 !- Year Escalation 7
  1.0059,                                 !- Year Escalation 8
  1.0089,                                 !- Year Escalation 9
  1.0119,                                 !- Year Escalation 10
  1.0148,                                 !- Year Escalation 11
  1.0178,                                 !- Year Escalation 12
  1.0208,                                 !- Year Escalation 13
  1.0267,                                 !- Year Escalation 14
  1.0297,                                 !- Year Escalation 15
  1.0356,                                 !- Year Escalation 16
  1.0415,                                 !- Year Escalation 17
  1.0534,                                 !- Year Escalation 18
  1.0564,                                 !- Year Escalation 19
  1.0593,                                 !- Year Escalation 20
  1.0653,                                 !- Year Escalation 21
  1.0712,                                 !- Year Escalation 22
  1.0742,                                 !- Year Escalation 23
  1.0801,                                 !- Year Escalation 24
  1.0831,                                 !- Year Escalation 25
  1.0831,                                 !- Year Escalation 26
  1.0861,                                 !- Year Escalation 27
  1.0890,                                 !- Year Escalation 28
  1.0920,                                 !- Year Escalation 29
  1.0950;                                 !- Year Escalation 30

Building,
  Small Office,                           !- Name
  -0,                                     !- North Axis {deg}
  ,                                       !- Terrain
  0.04,                                   !- Loads Convergence Tolerance Value {W}
  0.4,                                    !- Temperature Convergence Tolerance Value {deltaC}
  FullExterior,                           !- Solar Distribution
  25,                                     !- Maximum Number of Warmup Days
  ;                                       !- Minimum Number of Warmup Days

Zone,
  Thermal Zone 1,                         !- Name
  -0,                                     !- Direction of Relative North {deg}
  0,                                      !- X Origin {m}
  0,                                      !- Y Origin {m}
  0,                                      !- Z Origin {m}
  ,                                       !- Type
  1,                                      !- Multiplier
  ,                                       !- Ceiling Height {m}
  ,                                       !- Volume {m3}
  ,                                       !- Floor Area {m2}
  ,                                       !- Zone Inside Convection Algorithm
  ,                                       !- Zone Outside Convection Algorithm
  Yes;                                    !- Part of Total Floor Area

Space,
  Story 1 South Perimeter Space,          !- Name
  Thermal Zone 1,                         !- Zone Name
  ,                                       !- Ceiling Height {m}
  ,                                       !- Volume {m3}
  ,                                       !- Floor Area {m2}
  Space Function Office - open plan 5;    !- Space Type

SpaceList,
  Space Function Office - open plan 5,    !- Name
  Story 1 East Perimeter Space,           !- Space Name 1
  Story 1 West Perimeter Space,           !- Space Name 2
  Story 1 North Perimeter Space,          !- Space Name 3
  Story 1 South Perimeter Space,          !- Space Name 4
  Story 1 Core Space;                     !- Space Name 5

Lights,
  ASHRAE 189.1-2009 ClimateZone 4-8 SmallOffice LightsInst, !- Name
  Space Function Office - open plan 5,    !- Zone or ZoneList or Space or SpaceList Name
  Small Office Bldg Light,                !- Schedule Name
  Watts/Area,                             !- Design Level Calculation Method
  ,                                       !- Lighting Level {W}
  9.68752354606417,                       !- Watts per Floor Area {W/m2}
  ,                                       !- Watts per Person {W/person}
  ,                                       !- Return Air Fraction
  ,                                       !- Fraction Radiant
  ,                                       !- Fraction Visible
  ,                                       !- Fraction Replaceable
  Lights;                                 !- End-Use Subcategory

ScheduleTypeLimits,
  Fractional,                             !- Name
  0,                                      !- Lower Limit Value {BasedOnField A3}
  1,                                      !- Upper Limit Value {BasedOnField A3}
  Continuous;                             !- Numeric Type

Schedule:Day:Interval,
  Small Office Bldg Light Rule 1 Day Schedule, !- Name
  Fractional,                             !- Schedule Type Limits Name
  No,                                     !- Interpolate to Timestep
  24:00,                                  !- Time 1 {hh:mm}
  0.05;                                   !- Value Until Time 1

Schedule:Day:Interval,
  Small Office Bldg Light Default Schedule, !- Name
  Fractional,                             !- Schedule Type Limits Name
  No,                                     !- Interpolate to Timestep
  05:00,                                  !- Time 1 {hh:mm}
  0.05,                                   !- Value Until Time 1
  07:00,                                  !- Time 2 {hh:mm}
  0.1,                                    !- Value Until Time 2
  08:00,                                  !- Time 3 {hh:mm}
  0.3,                                    !- Value Until Time 3
  17:00,                                  !- Time 4 {hh:mm}
  0.9,                                    !- Value Until Time 4
  18:00,                                  !- Time 5 {hh:mm}
  0.5,                                    !- Value Until Time 5
  20:00,                                  !- Time 6 {hh:mm}
  0.3,                                    !- Value Until Time 6
  22:00,                                  !- Time 7 {hh:mm}
  0.2,                                    !- Value Until Time 7
  23:00,                                  !- Time 8 {hh:mm}
  0.1,                                    !- Value Until Time 8
  24:00,                                  !- Time 9 {hh:mm}
  0.05;                                   !- Value Until Time 9

Schedule:Day:Interval,
  Small Office Bldg Light Rule 2 Day Schedule, !- Name
  Fractional,                             !- Schedule Type Limits Name
  No,                                     !- Interpolate to Timestep
  06:00,                                  !- Time 1 {hh:mm}
  0.05,                                   !- Value Until Time 1
  08:00,                                  !- Time 2 {hh:mm}
  0.1,                                    !- Value Until Time 2
  12:00,                                  !- Time 3 {hh:mm}
  0.3,                                    !- Value Until Time 3
  17:00,                                  !- Time 4 {hh:mm}
  0.15,                                   !- Value Until Time 4
  24:00,                                  !- Time 5 {hh:mm}
  0.05;                                   !- Value Until Time 5

Schedule:Week:Daily,
  Small Office Bldg Light Week Rule - Jan1-Dec31, !- Name
  Small Office Bldg Light Rule 1 Day Schedule, !- Sunday Schedule:Day Name
  Small Office Bldg Light Default Schedule, !- Monday Schedule:Day Name
  Small Office Bldg Light Default Schedule, !- Tuesday Schedule:Day Name
  Small Office Bldg Light Default Schedule, !- Wednesday Schedule:Day Name
  Small Office Bldg Light Default Schedule, !- Thursday Schedule:Day Name
  Small Office Bldg Light Default Schedule, !- Friday Schedule:Day Name
  Small Office Bldg Light Rule 2 Day Schedule, !- Saturday Schedule:Day Name
  Small Office Bldg Light Default Schedule, !- Holiday Schedule:Day Name
  Small Office Bldg Light Summer Design Day, !- SummerDesignDay Schedule:Day Name
  Small Office Bldg Light Winter Design Day, !- WinterDesignDay Schedule:Day Name
  Small Office Bldg Light Default Schedule, !- CustomDay1 Schedule:Day Name
  Small Office Bldg Light Default Schedule; !- CustomDay2 Schedule:Day Name

Schedule:Year,
  Small Office Bldg Light,                !- Name
  Fractional,                             !- Schedule Type Limits Name
  Small Office Bldg Light Week Rule - Jan1-Dec31, !- Schedule:Week Name 1
  1,                                      !- Start Month 1
  1,                                      !- Start Day 1
  12,                                     !- End Month 1
  31;                                     !- End Day 1

Schedule:Day:Interval,
  Small Office Bldg Light Summer Design Day, !- Name
  Fractional,                             !- Schedule Type Limits Name
  No,                                     !- Interpolate to Timestep
  24:00,                                  !- Time 1 {hh:mm}
  1;                                      !- Value Until Time 1

Schedule:Day:Interval,
  Small Office Bldg Light Winter Design Day, !- Name
  Fractional,                             !- Schedule Type Limits Name
  No,                                     !- Interpolate to Timestep
  24:00,                                  !- Time 1 {hh:mm}
  0;                                      !- Value Until Time 1

People,
  ASHRAE 189.1-2009 ClimateZone 4-8 SmallOffice PeopInst, !- Name
  Space Function Office - open plan 5,    !- Zone or ZoneList or Space or SpaceList Name
  Small Office Bldg Occ,                  !- Number of People Schedule Name
  People/Area,                            !- Number of People Calculation Method
  0,                                      !- Number of People
  0.0538195752559121,                     !- People per Floor Area {person/m2}
  ,                                       !- Floor Area per Person {m2/person}
  0.3,                                    !- Fraction Radiant
  ,                                       !- Sensible Heat Fraction
  Small Office Activity;                  !- Activity Level Schedule Name

Schedule:Day:Interval,
  Small Office Bldg Occ Rule 1 Day Schedule, !- Name
  Fractional,                             !- Schedule Type Limits Name
  No,                                     !- Interpolate to Timestep
  24:00,                                  !- Time 1 {hh:mm}
  0;                                      !- Value Until Time 1

Schedule:Day:Interval,
  Small Office Bldg Occ Default Schedule, !- Name
  Fractional,                             !- Schedule Type Limits Name
  No,                                     !- Interpolate to Timestep
  06:00,                                  !- Time 1 {hh:mm}
  0,                                      !- Value Until Time 1
  07:00,                                  !- Time 2 {hh:mm}
  0.1,                                    !- Value Until Time 2
  08:00,                                  !- Time 3 {hh:mm}
  0.2,                                    !- Value Until Time 3
  12:00,                                  !- Time 4 {hh:mm}
  0.95,                                   !- Value Until Time 4
  13:00,                                  !- Time 5 {hh:mm}
  0.5,                                    !- Value Until Time 5
  17:00,                                  !- Time 6 {hh:mm}
  0.95,                                   !- Value Until Time 6
  18:00,                                  !- Time 7 {hh:mm}
  0.3,                                    !- Value Until Time 7
  20:00,                                  !- Time 8 {hh:mm}
  0.1,                                    !- Value Until Time 8
  24:00,                                  !- Time 9 {hh:mm}
  0.05;                                   !- Value Until Time 9

Schedule:Day:Interval,
  Small Office Bldg Occ Rule 2 Day Schedule, !- Name
  Fractional,                             !- Schedule Type Limits Name
  No,                                     !- Interpolate to Timestep
  06:00,                                  !- Time 1 {hh:mm}
  0,                                      !- Value Until Time 1
  08:00,                                  !- Time 2 {hh:mm}
  0.1,                                    !- Value Until Time 2
  12:00,                                  !- Time 3 {hh:mm}
  0.3,                                    !- Value Until Time 3
  17:00,                                  !- Time 4 {hh:mm}
  0.1,                                    !- Value Until Time 4
  24:00,                                  !- Time 5 {hh:mm}
  0;                                      !- Value Until Time 5

Schedule:Week:Daily,
  Small Office Bldg Occ Week Rule - Jan1-Dec31, !- Name
  Small Office Bldg Occ Rule 1 Day Schedule, !- Sunday Schedule:Day Name
  Small Office Bldg Occ Default Schedule, !- Monday Schedule:Day Name
  Small Office Bldg Occ Default Schedule, !- Tuesday Schedule:Day Name
  Small Office Bldg Occ Default Schedule, !- Wednesday Schedule:Day Name
  Small Office Bldg Occ Default Schedule, !- Thursday Schedule:Day Name
  Small Office Bldg Occ Default Schedule, !- Friday Schedule:Day Name
  Small Office Bldg Occ Rule 2 Day Schedule, !- Saturday Schedule:Day Name
  Small Office Bldg Occ Default Schedule, !- Holiday Schedule:Day Name
  Small Office Bldg Occ Summer Design Day, !- SummerDesignDay Schedule:Day Name
  Small Office Bldg Occ Winter Design Day, !- WinterDesignDay Schedule:Day Name
  Small Office Bldg Occ Default Schedule, !- CustomDay1 Schedule:Day Name
  Small Office Bldg Occ Default Schedule; !- CustomDay2 Schedule:Day Name

Schedule:Year,
  Small Office Bldg Occ,                  !- Name
  Fractional,                             !- Schedule Type Limits Name
  Small Office Bldg Occ Week Rule - Jan1-Dec31, !- Schedule:Week Name 1
  1,                                      !- Start Month 1
  1,                                      !- Start Day 1
  12,                                     !- End Month 1
  31;                                     !- End Day 1

Schedule:Day:Interval,
  Small Office Bldg Occ Summer Design Day, !- Name
  Fractional,                             !- Schedule Type Limits Name
  No,                                     !- Interpolate to Timestep
  06:00,                                  !- Time 1 {hh:mm}
  0,                                      !- Value Until Time 1
  22:00,                                  !- Time 2 {hh:mm}
  1,                                      !- Value Until Time 2
  24:00,                                  !- Time 3 {hh:mm}
  0.05;                                   !- Value Until Time 3

Schedule:Day:Interval,
  Small Office Bldg Occ Winter Design Day, !- Name
  Fractional,                             !- Schedule Type Limits Name
  No,                                     !- Interpolate to Timestep
  24:00,                                  !- Time 1 {hh:mm}
  0;                                      !- Value Until Time 1

ScheduleTypeLimits,
  ActivityLevel,                          !- Name
  0,                                      !- Lower Limit Value {BasedOnField A3}
  ,                                       !- Upper Limit Value {BasedOnField A3}
  Continuous,                             !- Numeric Type
  activitylevel;                          !- Unit Type

Schedule:Day:Interval,
  Small Office Activity Default Schedule, !- Name
  ActivityLevel,                          !- Schedule Type Limits Name
  No,                                     !- Interpolate to Timestep
  24:00,                                  !- Time 1 {hh:mm}
  120;                                    !- Value Until Time 1

Schedule:Week:Daily,
  Small Office Activity Week Rule - Jan1-Dec31, !- Name
  Small Office Activity Default Schedule, !- Sunday Schedule:Day Name
  Small Office Activity Default Schedule, !- Monday Schedule:Day Name
  Small Office Activity Default Schedule, !- Tuesday Schedule:Day Name
  Small Office Activity Default Schedule, !- Wednesday Schedule:Day Name
  Small Office Activity Default Schedule, !- Thursday Schedule:Day Name
  Small Office Activity Default Schedule, !- Friday Schedule:Day Name
  Small Office Activity Default Schedule, !- Saturday Schedule:Day Name
  Small Office Activity Default Schedule, !- Holiday Schedule:Day Name
  Small Office Activity Summer Design Day, !- SummerDesignDay Schedule:Day Name
  Small Office Activity Winter Design Day, !- WinterDesignDay Schedule:Day Name
  Small Office Activity Default Schedule, !- CustomDay1 Schedule:Day Name
  Small Office Activity Default Schedule; !- CustomDay2 Schedule:Day Name

Schedule:Year,
  Small Office Activity,                  !- Name
  ActivityLevel,                          !- Schedule Type Limits Name
  Small Office Activity Week Rule - Jan1-Dec31, !- Schedule:Week Name 1
  1,                                      !- Start Month 1
  1,                                      !- Start Day 1
  12,                                     !- End Month 1
  31;                                     !- End Day 1

Schedule:Day:Interval,
  Small Office Activity Summer Design Day, !- Name
  ActivityLevel,                          !- Schedule Type Limits Name
  No,                                     !- Interpolate to Timestep
  24:00,                                  !- Time 1 {hh:mm}
  120;                                    !- Value Until Time 1

Schedule:Day:Interval,
  Small Office Activity Winter Design Day, !- Name
  ActivityLevel,                          !- Schedule Type Limits Name
  No,                                     !- Interpolate to Timestep
  24:00,                                  !- Time 1 {hh:mm}
  120;                                    !- Value Until Time 1

ElectricEquipment,
  ASHRAE 189.1-2009 ClimateZone 4-8 SmallOffice ElecInst, !- Name
  Space Function Office - open plan 5,    !- Zone or ZoneList or Space or SpaceList Name
  Small Office Bldg Equip,                !- Schedule Name
  Watts/Area,                             !- Design Level Calculation Method
  ,                                       !- Design Level {W}
  5.8125141276385,                        !- Watts per Floor Area {W/m2}
  ,                                       !- Watts per Person {W/person}
  ,                                       !- Fraction Latent
  ,                                       !- Fraction Radiant
  ,                                       !- Fraction Lost
  ElectricEquipment;                      !- End-Use Subcategory

Schedule:Day:Interval,
  Small Office Bldg Equip Rule 1 Day Schedule, !- Name
  Fractional,                             !- Schedule Type Limits Name
  No,                                     !- Interpolate to Timestep
  24:00,                                  !- Time 1 {hh:mm}
  0.3;                                    !- Value Until Time 1

Schedule:Day:Interval,
  Small Office Bldg Equip Default Schedule, !- Name
  Fractional,                             !- Schedule Type Limits Name
  No,                                     !- Interpolate to Timestep
  08:00,                                  !- Time 1 {hh:mm}
  0.4,                                    !- Value Until Time 1
  12:00,                                  !- Time 2 {hh:mm}
  0.9,                                    !- Value Until Time 2
  13:00,                                  !- Time 3 {hh:mm}
  0.8,                                    !- Value Until Time 3
  17:00,                                  !- Time 4 {hh:mm}
  0.9,                                    !- Value Until Time 4
  18:00,                                  !- Time 5 {hh:mm}
  0.5,                                    !- Value Until Time 5
  24:00,                                  !- Time 6 {hh:mm}
  0.4;                                    !- Value Until Time 6

Schedule:Day:Interval,
  Small Office Bldg Equip Rule 2 Day Schedule, !- Name
  Fractional,                             !- Schedule Type Limits Name
  No,                                     !- Interpolate to Timestep
  06:00,                                  !- Time 1 {hh:mm}
  0.3,                                    !- Value Until Time 1
  08:00,                                  !- Time 2 {hh:mm}
  0.4,                                    !- Value Until Time 2
  12:00,                                  !- Time 3 {hh:mm}
  0.5,                                    !- Value Until Time 3
  17:00,                                  !- Time 4 {hh:mm}
  0.35,                                   !- Value Until Time 4
  24:00,                                  !- Time 5 {hh:mm}
  0.3;                                    !- Value Until Time 5

Schedule:Week:Daily,
  Small Office Bldg Equip Week Rule - Jan1-Dec31, !- Name
  Small Office Bldg Equip Rule 1 Day Schedule, !- Sunday Schedule:Day Name
  Small Office Bldg Equip Default Schedule, !- Monday Schedule:Day Name
  Small Office Bldg Equip Default Schedule, !- Tuesday Schedule:Day Name
  Small Office Bldg Equip Default Schedule, !- Wednesday Schedule:Day Name
  Small Office Bldg Equip Default Schedule, !- Thursday Schedule:Day Name
  Small Office Bldg Equip Default Schedule, !- Friday Schedule:Day Name
  Small Office Bldg Equip Rule 2 Day Schedule, !- Saturday Schedule:Day Name
  Small Office Bldg Equip Default Schedule, !- Holiday Schedule:Day Name
  Small Office Bldg Equip Summer Design Day, !- SummerDesignDay Schedule:Day Name
  Small Office Bldg Equip Winter Design Day, !- WinterDesignDay Schedule:Day Name
  Small Office Bldg Equip Default Schedule, !- CustomDay1 Schedule:Day Name
  Small Office Bldg Equip Default Schedule; !- CustomDay2 Schedule:Day Name

Schedule:Year,
  Small Office Bldg Equip,                !- Name
  Fractional,                             !- Schedule Type Limits Name
  Small Office Bldg Equip Week Rule - Jan1-Dec31, !- Schedule:Week Name 1
  1,                                      !- Start Month 1
  1,                                      !- Start Day 1
  12,                                     !- End Month 1
  31;                                     !- End Day 1

Schedule:Day:Interval,
  Small Office Bldg Equip Summer Design Day, !- Name
  Fractional,                             !- Schedule Type Limits Name
  No,                                     !- Interpolate to Timestep
  24:00,                                  !- Time 1 {hh:mm}
  1;                                      !- Value Until Time 1

Schedule:Day:Interval,
  Small Office Bldg Equip Winter Design Day, !- Name
  Fractional,                             !- Schedule Type Limits Name
  No,                                     !- Interpolate to Timestep
  24:00,                                  !- Time 1 {hh:mm}
  0;                                      !- Value Until Time 1

ZoneInfiltration:DesignFlowRate,
  ASHRAE 189.1-2009 ClimateZone 4-8 SmallOffice Infil, !- Name
  Space Function Office - open plan 5,    !- Zone or ZoneList or Space or SpaceList Name
  Small Office Infil Quarter On,          !- Schedule Name
  AirChanges/Hour,                        !- Design Flow Rate Calculation Method
  ,                                       !- Design Flow Rate {m3/s}
  ,                                       !- Flow Rate per Floor Area {m3/s-m2}
  ,                                       !- Flow Rate per Exterior Surface Area {m3/s-m2}
  0.41,                                   !- Air Changes per Hour {1/hr}
  ,                                       !- Constant Term Coefficient
  ,                                       !- Temperature Term Coefficient
  ,                                       !- Velocity Term Coefficient
  ;                                       !- Velocity Squared Term Coefficient

BuildingSurface:Detailed,
  Surface 19,                             !- Name
  Floor,                                  !- Surface Type
  000 ExtSlabCarpet 4in ClimateZone 1-8,  !- Construction Name
  Thermal Zone 1,                         !- Zone Name
  Story 1 South Perimeter Space,          !- Space Name
  Ground,                                 !- Outside Boundary Condition
  ,                                       !- Outside Boundary Condition Object
  NoSun,                                  !- Sun Exposure
  NoWind,                                 !- Wind Exposure
  ,                                       !- View Factor to Ground
  ,                                       !- Number of Vertices
  35.43, 4.57, 0,                         !- X,Y,Z Vertex 1 {m}
  40, 0, 0,                               !- X,Y,Z Vertex 2 {m}
  0, 0, 0,                                !- X,Y,Z Vertex 3 {m}
  4.57, 4.57, 0;                          !- X,Y,Z Vertex 4 {m}

BuildingSurface:Detailed,
  Surface 20,                             !- Name
  Wall,                                   !- Surface Type
  ASHRAE 189.1-2009 ExtWall Mass ClimateZone 5, !- Construction Name
  Thermal Zone 1,                         !- Zone Name
  Story 1 South Perimeter Space,          !- Space Name
  Outdoors,                               !- Outside Boundary Condition
  ,                                       !- Outside Boundary Condition Object
  SunExposed,                             !- Sun Exposure
  WindExposed,                            !- Wind Exposure
  ,                                       !- View Factor to Ground
  ,                                       !- Number of Vertices
  0, 0, 3.8,                              !- X,Y,Z Vertex 1 {m}
  0, 0, 0,                                !- X,Y,Z Vertex 2 {m}
  40, 0, 0,                               !- X,Y,Z Vertex 3 {m}
  40, 0, 3.8;                             !- X,Y,Z Vertex 4 {m}

FenestrationSurface:Detailed,
  Sub Surface 4,                          !- Name
  Window,                                 !- Surface Type
  ASHRAE 189.1-2009 ExtWindow ClimateZone 4-5, !- Construction Name
  Surface 20,                             !- Building Surface Name
  ,                                       !- Outside Boundary Condition Object
  ,                                       !- View Factor to Ground
  ,                                       !- Frame and Divider Name
  ,                                       !- Multiplier
  ,                                       !- Number of Vertices
  0.0254, 0, 2.2819328547255,             !- X,Y,Z Vertex 1 {m}
  0.0254, 0, 0.76,                        !- X,Y,Z Vertex 2 {m}
  39.9746, 0, 0.76,                       !- X,Y,Z Vertex 3 {m}
  39.9746, 0, 2.2819328547255;            !- X,Y,Z Vertex 4 {m}

BuildingSurface:Detailed,
  Surface 21,                             !- Name
  Wall,                                   !- Surface Type
  000 Interior Wall,                      !- Construction Name
  Thermal Zone 1,                         !- Zone Name
  Story 1 South Perimeter Space,          !- Space Name
  Surface,                                !- Outside Boundary Condition
  Surface 5,                              !- Outside Boundary Condition Object
  NoSun,                                  !- Sun Exposure
  NoWind,                                 !- Wind Exposure
  ,                                       !- View Factor to Ground
  ,                                       !- Number of Vertices
  4.57, 4.57, 3.8,                        !- X,Y,Z Vertex 1 {m}
  4.57, 4.57, 0,                          !- X,Y,Z Vertex 2 {m}
  0, 0, 0,                                !- X,Y,Z Vertex 3 {m}
  0, 0, 3.8;                              !- X,Y,Z Vertex 4 {m}

BuildingSurface:Detailed,
  Surface 22,                             !- Name
  Wall,                                   !- Surface Type
  000 Interior Wall,                      !- Construction Name
  Thermal Zone 1,                         !- Zone Name
  Story 1 South Perimeter Space,          !- Space Name
  Surface,                                !- Outside Boundary Condition
  Surface 29,                             !- Outside Boundary Condition Object
  NoSun,                                  !- Sun Exposure
  NoWind,                                 !- Wind Exposure
  ,                                       !- View Factor to Ground
  ,                                       !- Number of Vertices
  35.43, 4.57, 3.8,                       !- X,Y,Z Vertex 1 {m}
  35.43, 4.57, 0,                         !- X,Y,Z Vertex 2 {m}
  4.57, 4.57, 0,                          !- X,Y,Z Vertex 3 {m}
  4.57, 4.57, 3.8;                        !- X,Y,Z Vertex 4 {m}

BuildingSurface:Detailed,
  Surface 23,                             !- Name
  Wall,                                   !- Surface Type
  000 Interior Wall,                      !- Construction Name
  Thermal Zone 1,                         !- Zone Name
  Story 1 South Perimeter Space,          !- Space Name
  Surface,                                !- Outside Boundary Condition
  Surface 15,                             !- Outside Boundary Condition Object
  NoSun,                                  !- Sun Exposure
  NoWind,                                 !- Wind Exposure
  ,                                       !- View Factor to Ground
  ,                                       !- Number of Vertices
  40, 4.08374768133815e-15, 3.8,          !- X,Y,Z Vertex 1 {m}
  40, 4.08374768133815e-15, 0,            !- X,Y,Z Vertex 2 {m}
  35.43, 4.57, 0,                         !- X,Y,Z Vertex 3 {m}
  35.43, 4.57, 3.8;                       !- X,Y,Z Vertex 4 {m}

BuildingSurface:Detailed,
  Surface 24,                             !- Name
  Roof,                                   !- Surface Type
  ASHRAE 189.1-2009 ExtRoof IEAD ClimateZone 2-5, !- Construction Name
  Thermal Zone 1,                         !- Zone Name
  Story 1 South Perimeter Space,          !- Space Name
  Outdoors,                               !- Outside Boundary Condition
  ,                                       !- Outside Boundary Condition Object
  SunExposed,                             !- Sun Exposure
  WindExposed,                            !- Wind Exposure
  ,                                       !- View Factor to Ground
  ,                                       !- Number of Vertices
  40, 0, 3.8,                             !- X,Y,Z Vertex 1 {m}
  35.43, 4.57, 3.8,                       !- X,Y,Z Vertex 2 {m}
  4.57, 4.57, 3.8,                        !- X,Y,Z Vertex 3 {m}
  0, 0, 3.8;                              !- X,Y,Z Vertex 4 {m}

ZoneControl:Thermostat,
  Thermal Zone 1 Thermostat,              !- Name
  Thermal Zone 1,                         !- Zone or ZoneList Name
  Thermal Zone 1 Thermostat Schedule,     !- Control Type Schedule Name
  ThermostatSetpoint:DualSetpoint,        !- Control 1 Object Type
  Thermal Zone 1 Thermostat,              !- Control 1 Name
  ,                                       !- Control 2 Object Type
  ,                                       !- Control 2 Name
  ,                                       !- Control 3 Object Type
  ,                                       !- Control 3 Name
  ,                                       !- Control 4 Object Type
  ,                                       !- Control 4 Name
  0;                                      !- Temperature Difference Between Cutout And Setpoint {deltaC}

Schedule:Compact,
  Thermal Zone 1 Thermostat Schedule,     !- Name
  Thermal Zone 1 Thermostat Schedule Type Limits, !- Schedule Type Limits Name
  Through: 12/31,                         !- Field 1
  For: AllDays,                           !- Field 2
  Until: 24:00,                           !- Field 3
  4;                                      !- Field 4

ScheduleTypeLimits,
  Thermal Zone 1 Thermostat Schedule Type Limits, !- Name
  0,                                      !- Lower Limit Value {BasedOnField A3}
  4,                                      !- Upper Limit Value {BasedOnField A3}
  DISCRETE;                               !- Numeric Type

ThermostatSetpoint:DualSetpoint,
  Thermal Zone 1 Thermostat,              !- Name
  Small Office HtgSetp,                   !- Heating Setpoint Temperature Schedule Name
  Small Office ClgSetp;                   !- Cooling Setpoint Temperature Schedule Name

ScheduleTypeLimits,
  Temperature 1,                          !- Name
  ,                                       !- Lower Limit Value {BasedOnField A3}
  ,                                       !- Upper Limit Value {BasedOnField A3}
  Continuous,                             !- Numeric Type
  temperature;                            !- Unit Type

Schedule:Day:Interval,
  Small Office HtgSetp Rule 1 Day Schedule, !- Name
  Temperature 1,                          !- Schedule Type Limits Name
  No,                                     !- Interpolate to Timestep
  24:00,                                  !- Time 1 {hh:mm}
  15.6;                                   !- Value Until Time 1

Schedule:Day:Interval,
  Small Office HtgSetp Default Schedule,  !- Name
  Temperature 1,                          !- Schedule Type Limits Name
  No,                                     !- Interpolate to Timestep
  06:00,                                  !- Time 1 {hh:mm}
  15.6,                                   !- Value Until Time 1
  22:00,                                  !- Time 2 {hh:mm}
  21,                                     !- Value Until Time 2
  24:00,                                  !- Time 3 {hh:mm}
  15.6;                                   !- Value Until Time 3

Schedule:Day:Interval,
  Small Office HtgSetp Rule 2 Day Schedule, !- Name
  Temperature 1,                          !- Schedule Type Limits Name
  No,                                     !- Interpolate to Timestep
  06:00,                                  !- Time 1 {hh:mm}
  15.6,                                   !- Value Until Time 1
  18:00,                                  !- Time 2 {hh:mm}
  21,                                     !- Value Until Time 2
  24:00,                                  !- Time 3 {hh:mm}
  15.6;                                   !- Value Until Time 3

Schedule:Week:Daily,
  Small Office HtgSetp Week Rule - Jan1-Dec31, !- Name
  Small Office HtgSetp Rule 1 Day Schedule, !- Sunday Schedule:Day Name
  Small Office HtgSetp Default Schedule,  !- Monday Schedule:Day Name
  Small Office HtgSetp Default Schedule,  !- Tuesday Schedule:Day Name
  Small Office HtgSetp Default Schedule,  !- Wednesday Schedule:Day Name
  Small Office HtgSetp Default Schedule,  !- Thursday Schedule:Day Name
  Small Office HtgSetp Default Schedule,  !- Friday Schedule:Day Name
  Small Office HtgSetp Rule 2 Day Schedule, !- Saturday Schedule:Day Name
  Small Office HtgSetp Default Schedule,  !- Holiday Schedule:Day Name
  Small Office HtgSetp Summer Design Day, !- SummerDesignDay Schedule:Day Name
  Small Office HtgSetp Winter Design Day, !- WinterDesignDay Schedule:Day Name
  Small Office HtgSetp Default Schedule,  !- CustomDay1 Schedule:Day Name
  Small Office HtgSetp Default Schedule;  !- CustomDay2 Schedule:Day Name

Schedule:Year,
  Small Office HtgSetp,                   !- Name
  Temperature 1,                          !- Schedule Type Limits Name
  Small Office HtgSetp Week Rule - Jan1-Dec31, !- Schedule:Week Name 1
  1,                                      !- Start Month 1
  1,                                      !- Start Day 1
  12,                                     !- End Month 1
  31;                                     !- End Day 1

Schedule:Day:Interval,
  Small Office HtgSetp Summer Design Day, !- Name
  Temperature 1,                          !- Schedule Type Limits Name
  No,                                     !- Interpolate to Timestep
  24:00,                                  !- Time 1 {hh:mm}
  15.6;                                   !- Value Until Time 1

Schedule:Day:Interval,
  Small Office HtgSetp Winter Design Day, !- Name
  Temperature 1,                          !- Schedule Type Limits Name
  No,                                     !- Interpolate to Timestep
  24:00,                                  !- Time 1 {hh:mm}
  21;                                     !- Value Until Time 1

ScheduleTypeLimits,
  Temperature 2,                          !- Name
  ,                                       !- Lower Limit Value {BasedOnField A3}
  ,                                       !- Upper Limit Value {BasedOnField A3}
  Continuous,                             !- Numeric Type
  temperature;                            !- Unit Type

Schedule:Day:Interval,
  Small Office ClgSetp Rule 1 Day Schedule, !- Name
  Temperature 2,                          !- Schedule Type Limits Name
  No,                                     !- Interpolate to Timestep
  24:00,                                  !- Time 1 {hh:mm}
  26.7;                                   !- Value Until Time 1

Schedule:Day:Interval,
  Small Office ClgSetp Default Schedule,  !- Name
  Temperature 2,                          !- Schedule Type Limits Name
  No,                                     !- Interpolate to Timestep
  06:00,                                  !- Time 1 {hh:mm}
  26.7,                                   !- Value Until Time 1
  22:00,                                  !- Time 2 {hh:mm}
  24,                                     !- Value Until Time 2
  24:00,                                  !- Time 3 {hh:mm}
  26.7;                                   !- Value Until Time 3

Schedule:Day:Interval,
  Small Office ClgSetp Rule 2 Day Schedule, !- Name
  Temperature 2,                          !- Schedule Type Limits Name
  No,                                     !- Interpolate to Timestep
  06:00,                                  !- Time 1 {hh:mm}
  26.7,                                   !- Value Until Time 1
  18:00,                                  !- Time 2 {hh:mm}
  24,                                     !- Value Until Time 2
  24:00,                                  !- Time 3 {hh:mm}
  26.7;                                   !- Value Until Time 3

Schedule:Week:Daily,
  Small Office ClgSetp Week Rule - Jan1-Dec31, !- Name
  Small Office ClgSetp Rule 1 Day Schedule, !- Sunday Schedule:Day Name
  Small Office ClgSetp Default Schedule,  !- Monday Schedule:Day Name
  Small Office ClgSetp Default Schedule,  !- Tuesday Schedule:Day Name
  Small Office ClgSetp Default Schedule,  !- Wednesday Schedule:Day Name
  Small Office ClgSetp Default Schedule,  !- Thursday Schedule:Day Name
  Small Office ClgSetp Default Schedule,  !- Friday Schedule:Day Name
  Small Office ClgSetp Rule 2 Day Schedule, !- Saturday Schedule:Day Name
  Small Office ClgSetp Default Schedule,  !- Holiday Schedule:Day Name
  Small Office ClgSetp Summer Design Day, !- SummerDesignDay Schedule:Day Name
  Small Office ClgSetp Winter Design Day, !- WinterDesignDay Schedule:Day Name
  Small Office ClgSetp Default Schedule,  !- CustomDay1 Schedule:Day Name
  Small Office ClgSetp Default Schedule;  !- CustomDay2 Schedule:Day Name

Schedule:Year,
  Small Office ClgSetp,                   !- Name
  Temperature 2,                          !- Schedule Type Limits Name
  Small Office ClgSetp Week Rule - Jan1-Dec31, !- Schedule:Week Name 1
  1,                                      !- Start Month 1
  1,                                      !- Start Day 1
  12,                                     !- End Month 1
  31;                                     !- End Day 1

Schedule:Day:Interval,
  Small Office ClgSetp Summer Design Day, !- Name
  Temperature 2,                          !- Schedule Type Limits Name
  No,                                     !- Interpolate to Timestep
  06:00,                                  !- Time 1 {hh:mm}
  26.7,                                   !- Value Until Time 1
  22:00,                                  !- Time 2 {hh:mm}
  24,                                     !- Value Until Time 2
  24:00,                                  !- Time 3 {hh:mm}
  26.7;                                   !- Value Until Time 3

Schedule:Day:Interval,
  Small Office ClgSetp Winter Design Day, !- Name
  Temperature 2,                          !- Schedule Type Limits Name
  No,                                     !- Interpolate to Timestep
  24:00,                                  !- Time 1 {hh:mm}
  26.7;                                   !- Value Until Time 1

HVACTemplate:Zone:IdealLoadsAirSystem,
  Thermal Zone 1,                         !- Zone Name
  ,                                       !- Template Thermostat Name
  ,                                       !- System Availability Schedule Name
  ,                                       !- Maximum Heating Supply Air Temperature {C}
  ,                                       !- Minimum Cooling Supply Air Temperature {C}
  ,                                       !- Maximum Heating Supply Air Humidity Ratio {kgWater/kgDryAir}
  ,                                       !- Minimum Cooling Supply Air Humidity Ratio {kgWater/kgDryAir}
  ,                                       !- Heating Limit
  ,                                       !- Maximum Heating Air Flow Rate {m3/s}
  ,                                       !- Maximum Sensible Heating Capacity {W}
  ,                                       !- Cooling Limit
  ,                                       !- Maximum Cooling Air Flow Rate {m3/s}
  ,                                       !- Maximum Total Cooling Capacity {W}
  ,                                       !- Heating Availability Schedule Name
  ,                                       !- Cooling Availability Schedule Name
  ,                                       !- Dehumidification Control Type
  ,                                       !- Cooling Sensible Heat Ratio {dimensionless}
  ,                                       !- Dehumidification Setpoint {percent}
  ,                                       !- Humidification Control Type
  ,                                       !- Humidification Setpoint {percent}
  ,                                       !- Outdoor Air Method
  ,                                       !- Outdoor Air Flow Rate per Person {m3/s}
  ,                                       !- Outdoor Air Flow Rate per Zone Floor Area {m3/s-m2}
  ,                                       !- Outdoor Air Flow Rate per Zone {m3/s}
  ,                                       !- Design Specification Outdoor Air Object Name
  ;                                       !- Demand Controlled Ventilation Type

Sizing:Zone,
  Thermal Zone 1,                         !- Zone or ZoneList Name
  SupplyAirTemperature,                   !- Zone Cooling Design Supply Air Temperature Input Method
  14,                                     !- Zone Cooling Design Supply Air Temperature {C}
  11.11,                                  !- Zone Cooling Design Supply Air Temperature Difference {deltaC}
  SupplyAirTemperature,                   !- Zone Heating Design Supply Air Temperature Input Method
  40,                                     !- Zone Heating Design Supply Air Temperature {C}
  11.11,                                  !- Zone Heating Design Supply Air Temperature Difference {deltaC}
  0.0085,                                 !- Zone Cooling Design Supply Air Humidity Ratio {kgWater/kgDryAir}
  0.008,                                  !- Zone Heating Design Supply Air Humidity Ratio {kgWater/kgDryAir}
  Thermal Zone 1 DSOA Space List,         !- Design Specification Outdoor Air Object Name
  ,                                       !- Zone Heating Sizing Factor
  ,                                       !- Zone Cooling Sizing Factor
  DesignDay,                              !- Cooling Design Air Flow Method
  0,                                      !- Cooling Design Air Flow Rate {m3/s}
  0.000762,                               !- Cooling Minimum Air Flow per Zone Floor Area {m3/s-m2}
  0,                                      !- Cooling Minimum Air Flow {m3/s}
  0,                                      !- Cooling Minimum Air Flow Fraction
  DesignDay,                              !- Heating Design Air Flow Method
  0,                                      !- Heating Design Air Flow Rate {m3/s}
  0.002032,                               !- Heating Maximum Air Flow per Zone Floor Area {m3/s-m2}
  0.1415762,                              !- Heating Maximum Air Flow {m3/s}
  0.3,                                    !- Heating Maximum Air Flow Fraction
  ,                                       !- Design Specification Zone Air Distribution Object Name
  No,                                     !- Account for Dedicated Outdoor Air System
  ,                                       !- Dedicated Outdoor Air System Control Strategy
  ,                                       !- Dedicated Outdoor Air Low Setpoint Temperature for Design {C}
  ,                                       !- Dedicated Outdoor Air High Setpoint Temperature for Design {C}
  Sensible Load Only No Latent Load,      !- Zone Load Sizing Method
  HumidityRatioDifference,                !- Zone Latent Cooling Design Supply Air Humidity Ratio Input Method
  ,                                       !- Zone Dehumidification Design Supply Air Humidity Ratio {kgWater/kgDryAir}
  0.005,                                  !- Zone Cooling Design Supply Air Humidity Ratio Difference {kgWater/kgDryAir}
  HumidityRatioDifference,                !- Zone Latent Heating Design Supply Air Humidity Ratio Input Method
  ,                                       !- Zone Humidification Design Supply Air Humidity Ratio {kgWater/kgDryAir}
  0.005,                                  !- Zone Humidification Design Supply Air Humidity Ratio Difference {kgWater/kgDryAir}
  ,                                       !- Zone Humidistat Dehumidification Set Point Schedule Name
  ,                                       !- Zone Humidistat Humidification Set Point Schedule Name
  Coincident;                             !- Type of Space Sum to Use

DesignSpecification:OutdoorAir,
  SmallOffice Outdoor Air,                !- Name
  Sum,                                    !- Outdoor Air Method
  0.0107645200000431,                     !- Outdoor Air Flow per Person {m3/s-person}
  0,                                      !- Outdoor Air Flow per Zone Floor Area {m3/s-m2}
  0,                                      !- Outdoor Air Flow per Zone {m3/s}
  0;                                      !- Outdoor Air Flow Air Changes per Hour {1/hr}

DesignSpecification:OutdoorAir:SpaceList,
  Thermal Zone 1 DSOA Space List,         !- Name
  Story 1 South Perimeter Space,          !- Space Name 1
  SmallOffice Outdoor Air;                !- Space Design Specification Outdoor Air Object Name 1

ZoneVentilation:DesignFlowRate,
  Thermal Zone 1 Ventilation per Person,  !- Name
  Thermal Zone 1,                         !- Zone or ZoneList or Space or SpaceList Name
  Small Office Bldg Occ,                  !- Schedule Name
  Flow/Person,                            !- Design Flow Rate Calculation Method
  ,                                       !- Design Flow Rate {m3/s}
  ,                                       !- Flow Rate per Floor Area {m3/s-m2}
  0.0107645200000431,                     !- Flow Rate per Person {m3/s-person}
  ,                                       !- Air Changes per Hour {1/hr}
  ,                                       !- Ventilation Type
  ,                                       !- Fan Pressure Rise {Pa}
  ,                                       !- Fan Total Efficiency
  ,                                       !- Constant Term Coefficient
  ,                                       !- Temperature Term Coefficient
  ,                                       !- Velocity Term Coefficient
  ;                                       !- Velocity Squared Term Coefficient

Zone,
  Thermal Zone 2,                         !- Name
  -0,                                     !- Direction of Relative North {deg}
  0,                                      !- X Origin {m}
  0,                                      !- Y Origin {m}
  0,                                      !- Z Origin {m}
  ,                                       !- Type
  1,                                      !- Multiplier
  ,                                       !- Ceiling Height {m}
  ,                                       !- Volume {m3}
  ,                                       !- Floor Area {m2}
  ,                                       !- Zone Inside Convection Algorithm
  ,                                       !- Zone Outside Convection Algorithm
  Yes;                                    !- Part of Total Floor Area

Space,
  Story 1 West Perimeter Space,           !- Name
  Thermal Zone 2,                         !- Zone Name
  ,                                       !- Ceiling Height {m}
  ,                                       !- Volume {m3}
  ,                                       !- Floor Area {m2}
  Space Function Office - open plan 5;    !- Space Type

BuildingSurface:Detailed,
  Surface 1,                              !- Name
  Floor,                                  !- Surface Type
  000 ExtSlabCarpet 4in ClimateZone 1-8,  !- Construction Name
  Thermal Zone 2,                         !- Zone Name
  Story 1 West Perimeter Space,           !- Space Name
  Ground,                                 !- Outside Boundary Condition
  ,                                       !- Outside Boundary Condition Object
  NoSun,                                  !- Sun Exposure
  NoWind,                                 !- Wind Exposure
  ,                                       !- View Factor to Ground
  ,                                       !- Number of Vertices
  0, 20, 0,                               !- X,Y,Z Vertex 1 {m}
  4.57, 15.43, 0,                         !- X,Y,Z Vertex 2 {m}
  4.57, 4.57, 0,                          !- X,Y,Z Vertex 3 {m}
  0, 0, 0;                                !- X,Y,Z Vertex 4 {m}

BuildingSurface:Detailed,
  Surface 2,                              !- Name
  Wall,                                   !- Surface Type
  ASHRAE 189.1-2009 ExtWall Mass ClimateZone 5, !- Construction Name
  Thermal Zone 2,                         !- Zone Name
  Story 1 West Perimeter Space,           !- Space Name
  Outdoors,                               !- Outside Boundary Condition
  ,                                       !- Outside Boundary Condition Object
  SunExposed,                             !- Sun Exposure
  WindExposed,                            !- Wind Exposure
  ,                                       !- View Factor to Ground
  ,                                       !- Number of Vertices
  0, 20, 3.8,                             !- X,Y,Z Vertex 1 {m}
  0, 20, 0,                               !- X,Y,Z Vertex 2 {m}
  0, 0, 0,                                !- X,Y,Z Vertex 3 {m}
  0, 0, 3.8;                              !- X,Y,Z Vertex 4 {m}

FenestrationSurface:Detailed,
  Sub Surface 2,                          !- Name
  Window,                                 !- Surface Type
  ASHRAE 189.1-2009 ExtWindow ClimateZone 4-5, !- Construction Name
  Surface 2,                              !- Building Surface Name
  ,                                       !- Outside Boundary Condition Object
  ,                                       !- View Factor to Ground
  ,                                       !- Frame and Divider Name
  ,                                       !- Multiplier
  ,                                       !- Number of Vertices
  0, 19.9746, 2.28387063140377,           !- X,Y,Z Vertex 1 {m}
  0, 19.9746, 0.76,                       !- X,Y,Z Vertex 2 {m}
  0, 0.0253999999999976, 0.76,            !- X,Y,Z Vertex 3 {m}
  0, 0.0253999999999976, 2.28387063140377; !- X,Y,Z Vertex 4 {m}

BuildingSurface:Detailed,
  Surface 3,                              !- Name
  Wall,                                   !- Surface Type
  000 Interior Wall,                      !- Construction Name
  Thermal Zone 2,                         !- Zone Name
  Story 1 West Perimeter Space,           !- Space Name
  Surface,                                !- Outside Boundary Condition
  Surface 11,                             !- Outside Boundary Condition Object
  NoSun,                                  !- Sun Exposure
  NoWind,                                 !- Wind Exposure
  ,                                       !- View Factor to Ground
  ,                                       !- Number of Vertices
  4.57, 15.43, 3.8,                       !- X,Y,Z Vertex 1 {m}
  4.57, 15.43, 0,                         !- X,Y,Z Vertex 2 {m}
  3.84711686258183e-30, 20, 0,            !- X,Y,Z Vertex 3 {m}
  3.84711686258183e-30, 20, 3.8;          !- X,Y,Z Vertex 4 {m}

BuildingSurface:Detailed,
  Surface 4,                              !- Name
  Wall,                                   !- Surface Type
  000 Interior Wall,                      !- Construction Name
  Thermal Zone 2,                         !- Zone Name
  Story 1 West Perimeter Space,           !- Space Name
  Surface,                                !- Outside Boundary Condition
  Surface 26,                             !- Outside Boundary Condition Object
  NoSun,                                  !- Sun Exposure
  NoWind,                                 !- Wind Exposure
  ,                                       !- View Factor to Ground
  ,                                       !- Number of Vertices
  4.57, 4.57, 3.8,                        !- X,Y,Z Vertex 1 {m}
  4.57, 4.57, 0,                          !- X,Y,Z Vertex 2 {m}
  4.57, 15.43, 0,                         !- X,Y,Z Vertex 3 {m}
  4.57, 15.43, 3.8;                       !- X,Y,Z Vertex 4 {m}

BuildingSurface:Detailed,
  Surface 5,                              !- Name
  Wall,                                   !- Surface Type
  000 Interior Wall,                      !- Construction Name
  Thermal Zone 2,                         !- Zone Name
  Story 1 West Perimeter Space,           !- Space Name
  Surface,                                !- Outside Boundary Condition
  Surface 21,                             !- Outside Boundary Condition Object
  NoSun,                                  !- Sun Exposure
  NoWind,                                 !- Wind Exposure
  ,                                       !- View Factor to Ground
  ,                                       !- Number of Vertices
  0, 0, 3.8,                              !- X,Y,Z Vertex 1 {m}
  0, 0, 0,                                !- X,Y,Z Vertex 2 {m}
  4.57, 4.57, 0,                          !- X,Y,Z Vertex 3 {m}
  4.57, 4.57, 3.8;                        !- X,Y,Z Vertex 4 {m}

BuildingSurface:Detailed,
  Surface 6,                              !- Name
  Roof,                                   !- Surface Type
  ASHRAE 189.1-2009 ExtRoof IEAD ClimateZone 2-5, !- Construction Name
  Thermal Zone 2,                         !- Zone Name
  Story 1 West Perimeter Space,           !- Space Name
  Outdoors,                               !- Outside Boundary Condition
  ,                                       !- Outside Boundary Condition Object
  SunExposed,                             !- Sun Exposure
  WindExposed,                            !- Wind Exposure
  ,                                       !- View Factor to Ground
  ,                                       !- Number of Vertices
  0, 0, 3.8,                              !- X,Y,Z Vertex 1 {m}
  4.57, 4.57, 3.8,                        !- X,Y,Z Vertex 2 {m}
  4.57, 15.43, 3.8,                       !- X,Y,Z Vertex 3 {m}
  0, 20, 3.8;                             !- X,Y,Z Vertex 4 {m}

ZoneControl:Thermostat,
  Thermal Zone 2 Thermostat,              !- Name
  Thermal Zone 2,                         !- Zone or ZoneList Name
  Thermal Zone 2 Thermostat Schedule,     !- Control Type Schedule Name
  ThermostatSetpoint:DualSetpoint,        !- Control 1 Object Type
  Thermal Zone 2 Thermostat,              !- Control 1 Name
  ,                                       !- Control 2 Object Type
  ,                                       !- Control 2 Name
  ,                                       !- Control 3 Object Type
  ,                                       !- Control 3 Name
  ,                                       !- Control 4 Object Type
  ,                                       !- Control 4 Name
  0;                                      !- Temperature Difference Between Cutout And Setpoint {deltaC}

Schedule:Compact,
  Thermal Zone 2 Thermostat Schedule,     !- Name
  Thermal Zone 2 Thermostat Schedule Type Limits, !- Schedule Type Limits Name
  Through: 12/31,                         !- Field 1
  For: AllDays,                           !- Field 2
  Until: 24:00,                           !- Field 3
  4;                                      !- Field 4

ScheduleTypeLimits,
  Thermal Zone 2 Thermostat Schedule Type Limits, !- Name
  0,                                      !- Lower Limit Value {BasedOnField A3}
  4,                                      !- Upper Limit Value {BasedOnField A3}
  DISCRETE;                               !- Numeric Type

ThermostatSetpoint:DualSetpoint,
  Thermal Zone 2 Thermostat,              !- Name
  Small Office HtgSetp,                   !- Heating Setpoint Temperature Schedule Name
  Small Office ClgSetp;                   !- Cooling Setpoint Temperature Schedule Name

HVACTemplate:Zone:IdealLoadsAirSystem,
  Thermal Zone 2,                         !- Zone Name
  ,                                       !- Template Thermostat Name
  ,                                       !- System Availability Schedule Name
  ,                                       !- Maximum Heating Supply Air Temperature {C}
  ,                                       !- Minimum Cooling Supply Air Temperature {C}
  ,                                       !- Maximum Heating Supply Air Humidity Ratio {kgWater/kgDryAir}
  ,                                       !- Minimum Cooling Supply Air Humidity Ratio {kgWater/kgDryAir}
  ,                                       !- Heating Limit
  ,                                       !- Maximum Heating Air Flow Rate {m3/s}
  ,                                       !- Maximum Sensible Heating Capacity {W}
  ,                                       !- Cooling Limit
  ,                                       !- Maximum Cooling Air Flow Rate {m3/s}
  ,                                       !- Maximum Total Cooling Capacity {W}
  ,                                       !- Heating Availability Schedule Name
  ,                                       !- Cooling Availability Schedule Name
  ,                                       !- Dehumidification Control Type
  ,                                       !- Cooling Sensible Heat Ratio {dimensionless}
  ,                                       !- Dehumidification Setpoint {percent}
  ,                                       !- Humidification Control Type
  ,                                       !- Humidification Setpoint {percent}
  ,                                       !- Outdoor Air Method
  ,                                       !- Outdoor Air Flow Rate per Person {m3/s}
  ,                                       !- Outdoor Air Flow Rate per Zone Floor Area {m3/s-m2}
  ,                                       !- Outdoor Air Flow Rate per Zone {m3/s}
  ,                                       !- Design Specification Outdoor Air Object Name
  ;                                       !- Demand Controlled Ventilation Type

Sizing:Zone,
  Thermal Zone 2,                         !- Zone or ZoneList Name
  SupplyAirTemperature,                   !- Zone Cooling Design Supply Air Temperature Input Method
  14,                                     !- Zone Cooling Design Supply Air Temperature {C}
  11.11,                                  !- Zone Cooling Design Supply Air Temperature Difference {deltaC}
  SupplyAirTemperature,                   !- Zone Heating Design Supply Air Temperature Input Method
  40,                                     !- Zone Heating Design Supply Air Temperature {C}
  11.11,                                  !- Zone Heating Design Supply Air Temperature Difference {deltaC}
  0.0085,                                 !- Zone Cooling Design Supply Air Humidity Ratio {kgWater/kgDryAir}
  0.008,                                  !- Zone Heating Design Supply Air Humidity Ratio {kgWater/kgDryAir}
  Thermal Zone 2 DSOA Space List,         !- Design Specification Outdoor Air Object Name
  ,                                       !- Zone Heating Sizing Factor
  ,                                       !- Zone Cooling Sizing Factor
  DesignDay,                              !- Cooling Design Air Flow Method
  0,                                      !- Cooling Design Air Flow Rate {m3/s}
  0.000762,                               !- Cooling Minimum Air Flow per Zone Floor Area {m3/s-m2}
  0,                                      !- Cooling Minimum Air Flow {m3/s}
  0,                                      !- Cooling Minimum Air Flow Fraction
  DesignDay,                              !- Heating Design Air Flow Method
  0,                                      !- Heating Design Air Flow Rate {m3/s}
  0.002032,                               !- Heating Maximum Air Flow per Zone Floor Area {m3/s-m2}
  0.1415762,                              !- Heating Maximum Air Flow {m3/s}
  0.3,                                    !- Heating Maximum Air Flow Fraction
  ,                                       !- Design Specification Zone Air Distribution Object Name
  No,                                     !- Account for Dedicated Outdoor Air System
  ,                                       !- Dedicated Outdoor Air System Control Strategy
  ,                                       !- Dedicated Outdoor Air Low Setpoint Temperature for Design {C}
  ,                                       !- Dedicated Outdoor Air High Setpoint Temperature for Design {C}
  Sensible Load Only No Latent Load,      !- Zone Load Sizing Method
  HumidityRatioDifference,                !- Zone Latent Cooling Design Supply Air Humidity Ratio Input Method
  ,                                       !- Zone Dehumidification Design Supply Air Humidity Ratio {kgWater/kgDryAir}
  0.005,                                  !- Zone Cooling Design Supply Air Humidity Ratio Difference {kgWater/kgDryAir}
  HumidityRatioDifference,                !- Zone Latent Heating Design Supply Air Humidity Ratio Input Method
  ,                                       !- Zone Humidification Design Supply Air Humidity Ratio {kgWater/kgDryAir}
  0.005,                                  !- Zone Humidification Design Supply Air Humidity Ratio Difference {kgWater/kgDryAir}
  ,                                       !- Zone Humidistat Dehumidification Set Point Schedule Name
  ,                                       !- Zone Humidistat Humidification Set Point Schedule Name
  Coincident;                             !- Type of Space Sum to Use

DesignSpecification:OutdoorAir:SpaceList,
  Thermal Zone 2 DSOA Space List,         !- Name
  Story 1 West Perimeter Space,           !- Space Name 1
  SmallOffice Outdoor Air;                !- Space Design Specification Outdoor Air Object Name 1

ZoneVentilation:DesignFlowRate,
  Thermal Zone 2 Ventilation per Person,  !- Name
  Thermal Zone 2,                         !- Zone or ZoneList or Space or SpaceList Name
  Small Office Bldg Occ,                  !- Schedule Name
  Flow/Person,                            !- Design Flow Rate Calculation Method
  ,                                       !- Design Flow Rate {m3/s}
  ,                                       !- Flow Rate per Floor Area {m3/s-m2}
  0.0107645200000431,                     !- Flow Rate per Person {m3/s-person}
  ,                                       !- Air Changes per Hour {1/hr}
  ,                                       !- Ventilation Type
  ,                                       !- Fan Pressure Rise {Pa}
  ,                                       !- Fan Total Efficiency
  ,                                       !- Constant Term Coefficient
  ,                                       !- Temperature Term Coefficient
  ,                                       !- Velocity Term Coefficient
  ;                                       !- Velocity Squared Term Coefficient

Zone,
  Thermal Zone 3,                         !- Name
  -0,                                     !- Direction of Relative North {deg}
  4.57,                                   !- X Origin {m}
  15.43,                                  !- Y Origin {m}
  0,                                      !- Z Origin {m}
  ,                                       !- Type
  1,                                      !- Multiplier
  ,                                       !- Ceiling Height {m}
  ,                                       !- Volume {m3}
  ,                                       !- Floor Area {m2}
  ,                                       !- Zone Inside Convection Algorithm
  ,                                       !- Zone Outside Convection Algorithm
  Yes;                                    !- Part of Total Floor Area

Space,
  Story 1 North Perimeter Space,          !- Name
  Thermal Zone 3,                         !- Zone Name
  ,                                       !- Ceiling Height {m}
  ,                                       !- Volume {m3}
  ,                                       !- Floor Area {m2}
  Space Function Office - open plan 5;    !- Space Type

BuildingSurface:Detailed,
  Surface 10,                             !- Name
  Wall,                                   !- Surface Type
  000 Interior Wall,                      !- Construction Name
  Thermal Zone 3,                         !- Zone Name
  Story 1 North Perimeter Space,          !- Space Name
  Surface,                                !- Outside Boundary Condition
  Surface 27,                             !- Outside Boundary Condition Object
  NoSun,                                  !- Sun Exposure
  NoWind,                                 !- Wind Exposure
  ,                                       !- View Factor to Ground
  ,                                       !- Number of Vertices
  0, 0, 3.8,                              !- X,Y,Z Vertex 1 {m}
  0, 0, 0,                                !- X,Y,Z Vertex 2 {m}
  30.86, 0, 0,                            !- X,Y,Z Vertex 3 {m}
  30.86, 0, 3.8;                          !- X,Y,Z Vertex 4 {m}

BuildingSurface:Detailed,
  Surface 11,                             !- Name
  Wall,                                   !- Surface Type
  000 Interior Wall,                      !- Construction Name
  Thermal Zone 3,                         !- Zone Name
  Story 1 North Perimeter Space,          !- Space Name
  Surface,                                !- Outside Boundary Condition
  Surface 3,                              !- Outside Boundary Condition Object
  NoSun,                                  !- Sun Exposure
  NoWind,                                 !- Wind Exposure
  ,                                       !- View Factor to Ground
  ,                                       !- Number of Vertices
  -4.57, 4.57, 3.8,                       !- X,Y,Z Vertex 1 {m}
  -4.57, 4.57, 0,                         !- X,Y,Z Vertex 2 {m}
  0, 0, 0,                                !- X,Y,Z Vertex 3 {m}
  0, 0, 3.8;                              !- X,Y,Z Vertex 4 {m}

BuildingSurface:Detailed,
  Surface 12,                             !- Name
  Roof,                                   !- Surface Type
  ASHRAE 189.1-2009 ExtRoof IEAD ClimateZone 2-5, !- Construction Name
  Thermal Zone 3,                         !- Zone Name
  Story 1 North Perimeter Space,          !- Space Name
  Outdoors,                               !- Outside Boundary Condition
  ,                                       !- Outside Boundary Condition Object
  SunExposed,                             !- Sun Exposure
  WindExposed,                            !- Wind Exposure
  ,                                       !- View Factor to Ground
  ,                                       !- Number of Vertices
  30.86, 0, 3.8,                          !- X,Y,Z Vertex 1 {m}
  35.43, 4.57, 3.8,                       !- X,Y,Z Vertex 2 {m}
  -4.57, 4.57, 3.8,                       !- X,Y,Z Vertex 3 {m}
  0, 0, 3.8;                              !- X,Y,Z Vertex 4 {m}

BuildingSurface:Detailed,
  Surface 7,                              !- Name
  Floor,                                  !- Surface Type
  000 ExtSlabCarpet 4in ClimateZone 1-8,  !- Construction Name
  Thermal Zone 3,                         !- Zone Name
  Story 1 North Perimeter Space,          !- Space Name
  Ground,                                 !- Outside Boundary Condition
  ,                                       !- Outside Boundary Condition Object
  NoSun,                                  !- Sun Exposure
  NoWind,                                 !- Wind Exposure
  ,                                       !- View Factor to Ground
  ,                                       !- Number of Vertices
  35.43, 4.57, 0,                         !- X,Y,Z Vertex 1 {m}
  30.86, 0, 0,                            !- X,Y,Z Vertex 2 {m}
  0, 0, 0,                                !- X,Y,Z Vertex 3 {m}
  -4.57, 4.57, 0;                         !- X,Y,Z Vertex 4 {m}

BuildingSurface:Detailed,
  Surface 8,                              !- Name
  Wall,                                   !- Surface Type
  ASHRAE 189.1-2009 ExtWall Mass ClimateZone 5, !- Construction Name
  Thermal Zone 3,                         !- Zone Name
  Story 1 North Perimeter Space,          !- Space Name
  Outdoors,                               !- Outside Boundary Condition
  ,                                       !- Outside Boundary Condition Object
  SunExposed,                             !- Sun Exposure
  WindExposed,                            !- Wind Exposure
  ,                                       !- View Factor to Ground
  ,                                       !- Number of Vertices
  35.43, 4.57, 3.8,                       !- X,Y,Z Vertex 1 {m}
  35.43, 4.57, 0,                         !- X,Y,Z Vertex 2 {m}
  -4.57, 4.57, 0,                         !- X,Y,Z Vertex 3 {m}
  -4.57, 4.57, 3.8;                       !- X,Y,Z Vertex 4 {m}

FenestrationSurface:Detailed,
  Sub Surface 3,                          !- Name
  Window,                                 !- Surface Type
  ASHRAE 189.1-2009 ExtWindow ClimateZone 4-5, !- Construction Name
  Surface 8,                              !- Building Surface Name
  ,                                       !- Outside Boundary Condition Object
  ,                                       !- View Factor to Ground
  ,                                       !- Frame and Divider Name
  ,                                       !- Multiplier
  ,                                       !- Number of Vertices
  35.4046, 4.57, 2.2819328547255,         !- X,Y,Z Vertex 1 {m}
  35.4046, 4.57, 0.76,                    !- X,Y,Z Vertex 2 {m}
  -4.5446, 4.57, 0.76,                    !- X,Y,Z Vertex 3 {m}
  -4.5446, 4.57, 2.2819328547255;         !- X,Y,Z Vertex 4 {m}

BuildingSurface:Detailed,
  Surface 9,                              !- Name
  Wall,                                   !- Surface Type
  000 Interior Wall,                      !- Construction Name
  Thermal Zone 3,                         !- Zone Name
  Story 1 North Perimeter Space,          !- Space Name
  Surface,                                !- Outside Boundary Condition
  Surface 17,                             !- Outside Boundary Condition Object
  NoSun,                                  !- Sun Exposure
  NoWind,                                 !- Wind Exposure
  ,                                       !- View Factor to Ground
  ,                                       !- Number of Vertices
  30.86, -2.04187384066908e-15, 3.8,      !- X,Y,Z Vertex 1 {m}
  30.86, -2.04187384066908e-15, 0,        !- X,Y,Z Vertex 2 {m}
  35.43, 4.57, 0,                         !- X,Y,Z Vertex 3 {m}
  35.43, 4.57, 3.8;                       !- X,Y,Z Vertex 4 {m}

ZoneControl:Thermostat,
  Thermal Zone 3 Thermostat,              !- Name
  Thermal Zone 3,                         !- Zone or ZoneList Name
  Thermal Zone 3 Thermostat Schedule,     !- Control Type Schedule Name
  ThermostatSetpoint:DualSetpoint,        !- Control 1 Object Type
  Thermal Zone 3 Thermostat,              !- Control 1 Name
  ,                                       !- Control 2 Object Type
  ,                                       !- Control 2 Name
  ,                                       !- Control 3 Object Type
  ,                                       !- Control 3 Name
  ,                                       !- Control 4 Object Type
  ,                                       !- Control 4 Name
  0;                                      !- Temperature Difference Between Cutout And Setpoint {deltaC}

Schedule:Compact,
  Thermal Zone 3 Thermostat Schedule,     !- Name
  Thermal Zone 3 Thermostat Schedule Type Limits, !- Schedule Type Limits Name
  Through: 12/31,                         !- Field 1
  For: AllDays,                           !- Field 2
  Until: 24:00,                           !- Field 3
  4;                                      !- Field 4

ScheduleTypeLimits,
  Thermal Zone 3 Thermostat Schedule Type Limits, !- Name
  0,                                      !- Lower Limit Value {BasedOnField A3}
  4,                                      !- Upper Limit Value {BasedOnField A3}
  DISCRETE;                               !- Numeric Type

ThermostatSetpoint:DualSetpoint,
  Thermal Zone 3 Thermostat,              !- Name
  Small Office HtgSetp,                   !- Heating Setpoint Temperature Schedule Name
  Small Office ClgSetp;                   !- Cooling Setpoint Temperature Schedule Name

HVACTemplate:Zone:IdealLoadsAirSystem,
  Thermal Zone 3,                         !- Zone Name
  ,                                       !- Template Thermostat Name
  ,                                       !- System Availability Schedule Name
  ,                                       !- Maximum Heating Supply Air Temperature {C}
  ,                                       !- Minimum Cooling Supply Air Temperature {C}
  ,                                       !- Maximum Heating Supply Air Humidity Ratio {kgWater/kgDryAir}
  ,                                       !- Minimum Cooling Supply Air Humidity Ratio {kgWater/kgDryAir}
  ,                                       !- Heating Limit
  ,                                       !- Maximum Heating Air Flow Rate {m3/s}
  ,                                       !- Maximum Sensible Heating Capacity {W}
  ,                                       !- Cooling Limit
  ,                                       !- Maximum Cooling Air Flow Rate {m3/s}
  ,                                       !- Maximum Total Cooling Capacity {W}
  ,                                       !- Heating Availability Schedule Name
  ,                                       !- Cooling Availability Schedule Name
  ,                                       !- Dehumidification Control Type
  ,                                       !- Cooling Sensible Heat Ratio {dimensionless}
  ,                                       !- Dehumidification Setpoint {percent}
  ,                                       !- Humidification Control Type
  ,                                       !- Humidification Setpoint {percent}
  ,                                       !- Outdoor Air Method
  ,                                       !- Outdoor Air Flow Rate per Person {m3/s}
  ,                                       !- Outdoor Air Flow Rate per Zone Floor Area {m3/s-m2}
  ,                                       !- Outdoor Air Flow Rate per Zone {m3/s}
  ,                                       !- Design Specification Outdoor Air Object Name
  ;                                       !- Demand Controlled Ventilation Type

Sizing:Zone,
  Thermal Zone 3,                         !- Zone or ZoneList Name
  SupplyAirTemperature,                   !- Zone Cooling Design Supply Air Temperature Input Method
  14,                                     !- Zone Cooling Design Supply Air Temperature {C}
  11.11,                                  !- Zone Cooling Design Supply Air Temperature Difference {deltaC}
  SupplyAirTemperature,                   !- Zone Heating Design Supply Air Temperature Input Method
  40,                                     !- Zone Heating Design Supply Air Temperature {C}
  11.11,                                  !- Zone Heating Design Supply Air Temperature Difference {deltaC}
  0.0085,                                 !- Zone Cooling Design Supply Air Humidity Ratio {kgWater/kgDryAir}
  0.008,                                  !- Zone Heating Design Supply Air Humidity Ratio {kgWater/kgDryAir}
  Thermal Zone 3 DSOA Space List,         !- Design Specification Outdoor Air Object Name
  ,                                       !- Zone Heating Sizing Factor
  ,                                       !- Zone Cooling Sizing Factor
  DesignDay,                              !- Cooling Design Air Flow Method
  0,                                      !- Cooling Design Air Flow Rate {m3/s}
  0.000762,                               !- Cooling Minimum Air Flow per Zone Floor Area {m3/s-m2}
  0,                                      !- Cooling Minimum Air Flow {m3/s}
  0,                                      !- Cooling Minimum Air Flow Fraction
  DesignDay,                              !- Heating Design Air Flow Method
  0,                                      !- Heating Design Air Flow Rate {m3/s}
  0.002032,                               !- Heating Maximum Air Flow per Zone Floor Area {m3/s-m2}
  0.1415762,                              !- Heating Maximum Air Flow {m3/s}
  0.3,                                    !- Heating Maximum Air Flow Fraction
  ,                                       !- Design Specification Zone Air Distribution Object Name
  No,                                     !- Account for Dedicated Outdoor Air System
  ,                                       !- Dedicated Outdoor Air System Control Strategy
  ,                                       !- Dedicated Outdoor Air Low Setpoint Temperature for Design {C}
  ,                                       !- Dedicated Outdoor Air High Setpoint Temperature for Design {C}
  Sensible Load Only No Latent Load,      !- Zone Load Sizing Method
  HumidityRatioDifference,                !- Zone Latent Cooling Design Supply Air Humidity Ratio Input Method
  ,                                       !- Zone Dehumidification Design Supply Air Humidity Ratio {kgWater/kgDryAir}
  0.005,                                  !- Zone Cooling Design Supply Air Humidity Ratio Difference {kgWater/kgDryAir}
  HumidityRatioDifference,                !- Zone Latent Heating Design Supply Air Humidity Ratio Input Method
  ,                                       !- Zone Humidification Design Supply Air Humidity Ratio {kgWater/kgDryAir}
  0.005,                                  !- Zone Humidification Design Supply Air Humidity Ratio Difference {kgWater/kgDryAir}
  ,                                       !- Zone Humidistat Dehumidification Set Point Schedule Name
  ,                                       !- Zone Humidistat Humidification Set Point Schedule Name
  Coincident;                             !- Type of Space Sum to Use

DesignSpecification:OutdoorAir:SpaceList,
  Thermal Zone 3 DSOA Space List,         !- Name
  Story 1 North Perimeter Space,          !- Space Name 1
  SmallOffice Outdoor Air;                !- Space Design Specification Outdoor Air Object Name 1

ZoneVentilation:DesignFlowRate,
  Thermal Zone 3 Ventilation per Person,  !- Name
  Thermal Zone 3,                         !- Zone or ZoneList or Space or SpaceList Name
  Small Office Bldg Occ,                  !- Schedule Name
  Flow/Person,                            !- Design Flow Rate Calculation Method
  ,                                       !- Design Flow Rate {m3/s}
  ,                                       !- Flow Rate per Floor Area {m3/s-m2}
  0.0107645200000431,                     !- Flow Rate per Person {m3/s-person}
  ,                                       !- Air Changes per Hour {1/hr}
  ,                                       !- Ventilation Type
  ,                                       !- Fan Pressure Rise {Pa}
  ,                                       !- Fan Total Efficiency
  ,                                       !- Constant Term Coefficient
  ,                                       !- Temperature Term Coefficient
  ,                                       !- Velocity Term Coefficient
  ;                                       !- Velocity Squared Term Coefficient

Zone,
  Thermal Zone 4,                         !- Name
  -0,                                     !- Direction of Relative North {deg}
  35.43,                                  !- X Origin {m}
  4.57,                                   !- Y Origin {m}
  0,                                      !- Z Origin {m}
  ,                                       !- Type
  1,                                      !- Multiplier
  ,                                       !- Ceiling Height {m}
  ,                                       !- Volume {m3}
  ,                                       !- Floor Area {m2}
  ,                                       !- Zone Inside Convection Algorithm
  ,                                       !- Zone Outside Convection Algorithm
  Yes;                                    !- Part of Total Floor Area

Space,
  Story 1 East Perimeter Space,           !- Name
  Thermal Zone 4,                         !- Zone Name
  ,                                       !- Ceiling Height {m}
  ,                                       !- Volume {m3}
  ,                                       !- Floor Area {m2}
  Space Function Office - open plan 5;    !- Space Type

BuildingSurface:Detailed,
  Surface 13,                             !- Name
  Floor,                                  !- Surface Type
  000 ExtSlabCarpet 4in ClimateZone 1-8,  !- Construction Name
  Thermal Zone 4,                         !- Zone Name
  Story 1 East Perimeter Space,           !- Space Name
  Ground,                                 !- Outside Boundary Condition
  ,                                       !- Outside Boundary Condition Object
  NoSun,                                  !- Sun Exposure
  NoWind,                                 !- Wind Exposure
  ,                                       !- View Factor to Ground
  ,                                       !- Number of Vertices
  4.57, 15.43, 0,                         !- X,Y,Z Vertex 1 {m}
  4.57, -4.57, 0,                         !- X,Y,Z Vertex 2 {m}
  0, 0, 0,                                !- X,Y,Z Vertex 3 {m}
  0, 10.86, 0;                            !- X,Y,Z Vertex 4 {m}

BuildingSurface:Detailed,
  Surface 14,                             !- Name
  Wall,                                   !- Surface Type
  ASHRAE 189.1-2009 ExtWall Mass ClimateZone 5, !- Construction Name
  Thermal Zone 4,                         !- Zone Name
  Story 1 East Perimeter Space,           !- Space Name
  Outdoors,                               !- Outside Boundary Condition
  ,                                       !- Outside Boundary Condition Object
  SunExposed,                             !- Sun Exposure
  WindExposed,                            !- Wind Exposure
  ,                                       !- View Factor to Ground
  ,                                       !- Number of Vertices
  4.57, -4.57, 3.8,                       !- X,Y,Z Vertex 1 {m}
  4.57, -4.57, 0,                         !- X,Y,Z Vertex 2 {m}
  4.57, 15.43, 0,                         !- X,Y,Z Vertex 3 {m}
  4.57, 15.43, 3.8;                       !- X,Y,Z Vertex 4 {m}

FenestrationSurface:Detailed,
  Sub Surface 1,                          !- Name
  Window,                                 !- Surface Type
  ASHRAE 189.1-2009 ExtWindow ClimateZone 4-5, !- Construction Name
  Surface 14,                             !- Building Surface Name
  ,                                       !- Outside Boundary Condition Object
  ,                                       !- View Factor to Ground
  ,                                       !- Frame and Divider Name
  ,                                       !- Multiplier
  ,                                       !- Number of Vertices
  4.57, -4.5446, 2.28387063140377,        !- X,Y,Z Vertex 1 {m}
  4.57, -4.5446, 0.76,                    !- X,Y,Z Vertex 2 {m}
  4.57, 15.4046, 0.76,                    !- X,Y,Z Vertex 3 {m}
  4.57, 15.4046, 2.28387063140377;        !- X,Y,Z Vertex 4 {m}

BuildingSurface:Detailed,
  Surface 15,                             !- Name
  Wall,                                   !- Surface Type
  000 Interior Wall,                      !- Construction Name
  Thermal Zone 4,                         !- Zone Name
  Story 1 East Perimeter Space,           !- Space Name
  Surface,                                !- Outside Boundary Condition
  Surface 23,                             !- Outside Boundary Condition Object
  NoSun,                                  !- Sun Exposure
  NoWind,                                 !- Wind Exposure
  ,                                       !- View Factor to Ground
  ,                                       !- Number of Vertices
  0, 0, 3.8,                              !- X,Y,Z Vertex 1 {m}
  0, 0, 0,                                !- X,Y,Z Vertex 2 {m}
  4.57, -4.57, 0,                         !- X,Y,Z Vertex 3 {m}
  4.57, -4.57, 3.8;                       !- X,Y,Z Vertex 4 {m}

BuildingSurface:Detailed,
  Surface 16,                             !- Name
  Wall,                                   !- Surface Type
  000 Interior Wall,                      !- Construction Name
  Thermal Zone 4,                         !- Zone Name
  Story 1 East Perimeter Space,           !- Space Name
  Surface,                                !- Outside Boundary Condition
  Surface 28,                             !- Outside Boundary Condition Object
  NoSun,                                  !- Sun Exposure
  NoWind,                                 !- Wind Exposure
  ,                                       !- View Factor to Ground
  ,                                       !- Number of Vertices
  0, 10.86, 3.8,                          !- X,Y,Z Vertex 1 {m}
  0, 10.86, 0,                            !- X,Y,Z Vertex 2 {m}
  0, 0, 0,                                !- X,Y,Z Vertex 3 {m}
  0, 0, 3.8;                              !- X,Y,Z Vertex 4 {m}

BuildingSurface:Detailed,
  Surface 17,                             !- Name
  Wall,                                   !- Surface Type
  000 Interior Wall,                      !- Construction Name
  Thermal Zone 4,                         !- Zone Name
  Story 1 East Perimeter Space,           !- Space Name
  Surface,                                !- Outside Boundary Condition
  Surface 9,                              !- Outside Boundary Condition Object
  NoSun,                                  !- Sun Exposure
  NoWind,                                 !- Wind Exposure
  ,                                       !- View Factor to Ground
  ,                                       !- Number of Vertices
  4.57, 15.43, 3.8,                       !- X,Y,Z Vertex 1 {m}
  4.57, 15.43, 0,                         !- X,Y,Z Vertex 2 {m}
  0, 10.86, 0,                            !- X,Y,Z Vertex 3 {m}
  0, 10.86, 3.8;                          !- X,Y,Z Vertex 4 {m}

BuildingSurface:Detailed,
  Surface 18,                             !- Name
  Roof,                                   !- Surface Type
  ASHRAE 189.1-2009 ExtRoof IEAD ClimateZone 2-5, !- Construction Name
  Thermal Zone 4,                         !- Zone Name
  Story 1 East Perimeter Space,           !- Space Name
  Outdoors,                               !- Outside Boundary Condition
  ,                                       !- Outside Boundary Condition Object
  SunExposed,                             !- Sun Exposure
  WindExposed,                            !- Wind Exposure
  ,                                       !- View Factor to Ground
  ,                                       !- Number of Vertices
  4.57, -4.57, 3.8,                       !- X,Y,Z Vertex 1 {m}
  4.57, 15.43, 3.8,                       !- X,Y,Z Vertex 2 {m}
  0, 10.86, 3.8,                          !- X,Y,Z Vertex 3 {m}
  0, 0, 3.8;                              !- X,Y,Z Vertex 4 {m}

ZoneControl:Thermostat,
  Thermal Zone 4 Thermostat,              !- Name
  Thermal Zone 4,                         !- Zone or ZoneList Name
  Thermal Zone 4 Thermostat Schedule,     !- Control Type Schedule Name
  ThermostatSetpoint:DualSetpoint,        !- Control 1 Object Type
  Thermal Zone 4 Thermostat,              !- Control 1 Name
  ,                                       !- Control 2 Object Type
  ,                                       !- Control 2 Name
  ,                                       !- Control 3 Object Type
  ,                                       !- Control 3 Name
  ,                                       !- Control 4 Object Type
  ,                                       !- Control 4 Name
  0;                                      !- Temperature Difference Between Cutout And Setpoint {deltaC}

Schedule:Compact,
  Thermal Zone 4 Thermostat Schedule,     !- Name
  Thermal Zone 4 Thermostat Schedule Type Limits, !- Schedule Type Limits Name
  Through: 12/31,                         !- Field 1
  For: AllDays,                           !- Field 2
  Until: 24:00,                           !- Field 3
  4;                                      !- Field 4

ScheduleTypeLimits,
  Thermal Zone 4 Thermostat Schedule Type Limits, !- Name
  0,                                      !- Lower Limit Value {BasedOnField A3}
  4,                                      !- Upper Limit Value {BasedOnField A3}
  DISCRETE;                               !- Numeric Type

ThermostatSetpoint:DualSetpoint,
  Thermal Zone 4 Thermostat,              !- Name
  Small Office HtgSetp,                   !- Heating Setpoint Temperature Schedule Name
  Small Office ClgSetp;                   !- Cooling Setpoint Temperature Schedule Name

HVACTemplate:Zone:IdealLoadsAirSystem,
  Thermal Zone 4,                         !- Zone Name
  ,                                       !- Template Thermostat Name
  ,                                       !- System Availability Schedule Name
  ,                                       !- Maximum Heating Supply Air Temperature {C}
  ,                                       !- Minimum Cooling Supply Air Temperature {C}
  ,                                       !- Maximum Heating Supply Air Humidity Ratio {kgWater/kgDryAir}
  ,                                       !- Minimum Cooling Supply Air Humidity Ratio {kgWater/kgDryAir}
  ,                                       !- Heating Limit
  ,                                       !- Maximum Heating Air Flow Rate {m3/s}
  ,                                       !- Maximum Sensible Heating Capacity {W}
  ,                                       !- Cooling Limit
  ,                                       !- Maximum Cooling Air Flow Rate {m3/s}
  ,                                       !- Maximum Total Cooling Capacity {W}
  ,                                       !- Heating Availability Schedule Name
  ,                                       !- Cooling Availability Schedule Name
  ,                                       !- Dehumidification Control Type
  ,                                       !- Cooling Sensible Heat Ratio {dimensionless}
  ,                                       !- Dehumidification Setpoint {percent}
  ,                                       !- Humidification Control Type
  ,                                       !- Humidification Setpoint {percent}
  ,                                       !- Outdoor Air Method
  ,                                       !- Outdoor Air Flow Rate per Person {m3/s}
  ,                                       !- Outdoor Air Flow Rate per Zone Floor Area {m3/s-m2}
  ,                                       !- Outdoor Air Flow Rate per Zone {m3/s}
  ,                                       !- Design Specification Outdoor Air Object Name
  ;                                       !- Demand Controlled Ventilation Type

Sizing:Zone,
  Thermal Zone 4,                         !- Zone or ZoneList Name
  SupplyAirTemperature,                   !- Zone Cooling Design Supply Air Temperature Input Method
  14,                                     !- Zone Cooling Design Supply Air Temperature {C}
  11.11,                                  !- Zone Cooling Design Supply Air Temperature Difference {deltaC}
  SupplyAirTemperature,                   !- Zone Heating Design Supply Air Temperature Input Method
  40,                                     !- Zone Heating Design Supply Air Temperature {C}
  11.11,                                  !- Zone Heating Design Supply Air Temperature Difference {deltaC}
  0.0085,                                 !- Zone Cooling Design Supply Air Humidity Ratio {kgWater/kgDryAir}
  0.008,                                  !- Zone Heating Design Supply Air Humidity Ratio {kgWater/kgDryAir}
  Thermal Zone 4 DSOA Space List,         !- Design Specification Outdoor Air Object Name
  ,                                       !- Zone Heating Sizing Factor
  ,                                       !- Zone Cooling Sizing Factor
  DesignDay,                              !- Cooling Design Air Flow Method
  0,                                      !- Cooling Design Air Flow Rate {m3/s}
  0.000762,                               !- Cooling Minimum Air Flow per Zone Floor Area {m3/s-m2}
  0,                                      !- Cooling Minimum Air Flow {m3/s}
  0,                                      !- Cooling Minimum Air Flow Fraction
  DesignDay,                              !- Heating Design Air Flow Method
  0,                                      !- Heating Design Air Flow Rate {m3/s}
  0.002032,                               !- Heating Maximum Air Flow per Zone Floor Area {m3/s-m2}
  0.1415762,                              !- Heating Maximum Air Flow {m3/s}
  0.3,                                    !- Heating Maximum Air Flow Fraction
  ,                                       !- Design Specification Zone Air Distribution Object Name
  No,                                     !- Account for Dedicated Outdoor Air System
  ,                                       !- Dedicated Outdoor Air System Control Strategy
  ,                                       !- Dedicated Outdoor Air Low Setpoint Temperature for Design {C}
  ,                                       !- Dedicated Outdoor Air High Setpoint Temperature for Design {C}
  Sensible Load Only No Latent Load,      !- Zone Load Sizing Method
  HumidityRatioDifference,                !- Zone Latent Cooling Design Supply Air Humidity Ratio Input Method
  ,                                       !- Zone Dehumidification Design Supply Air Humidity Ratio {kgWater/kgDryAir}
  0.005,                                  !- Zone Cooling Design Supply Air Humidity Ratio Difference {kgWater/kgDryAir}
  HumidityRatioDifference,                !- Zone Latent Heating Design Supply Air Humidity Ratio Input Method
  ,                                       !- Zone Humidification Design Supply Air Humidity Ratio {kgWater/kgDryAir}
  0.005,                                  !- Zone Humidification Design Supply Air Humidity Ratio Difference {kgWater/kgDryAir}
  ,                                       !- Zone Humidistat Dehumidification Set Point Schedule Name
  ,                                       !- Zone Humidistat Humidification Set Point Schedule Name
  Coincident;                             !- Type of Space Sum to Use

DesignSpecification:OutdoorAir:SpaceList,
  Thermal Zone 4 DSOA Space List,         !- Name
  Story 1 East Perimeter Space,           !- Space Name 1
  SmallOffice Outdoor Air;                !- Space Design Specification Outdoor Air Object Name 1

ZoneVentilation:DesignFlowRate,
  Thermal Zone 4 Ventilation per Person,  !- Name
  Thermal Zone 4,                         !- Zone or ZoneList or Space or SpaceList Name
  Small Office Bldg Occ,                  !- Schedule Name
  Flow/Person,                            !- Design Flow Rate Calculation Method
  ,                                       !- Design Flow Rate {m3/s}
  ,                                       !- Flow Rate per Floor Area {m3/s-m2}
  0.0107645200000431,                     !- Flow Rate per Person {m3/s-person}
  ,                                       !- Air Changes per Hour {1/hr}
  ,                                       !- Ventilation Type
  ,                                       !- Fan Pressure Rise {Pa}
  ,                                       !- Fan Total Efficiency
  ,                                       !- Constant Term Coefficient
  ,                                       !- Temperature Term Coefficient
  ,                                       !- Velocity Term Coefficient
  ;                                       !- Velocity Squared Term Coefficient

Zone,
  Thermal Zone 5,                         !- Name
  -0,                                     !- Direction of Relative North {deg}
  4.57,                                   !- X Origin {m}
  4.57,                                   !- Y Origin {m}
  0,                                      !- Z Origin {m}
  ,                                       !- Type
  1,                                      !- Multiplier
  ,                                       !- Ceiling Height {m}
  ,                                       !- Volume {m3}
  ,                                       !- Floor Area {m2}
  ,                                       !- Zone Inside Convection Algorithm
  ,                                       !- Zone Outside Convection Algorithm
  Yes;                                    !- Part of Total Floor Area

Space,
  Story 1 Core Space,                     !- Name
  Thermal Zone 5,                         !- Zone Name
  ,                                       !- Ceiling Height {m}
  ,                                       !- Volume {m3}
  ,                                       !- Floor Area {m2}
  Space Function Office - open plan 5;    !- Space Type

BuildingSurface:Detailed,
  Surface 25,                             !- Name
  Floor,                                  !- Surface Type
  000 ExtSlabCarpet 4in ClimateZone 1-8,  !- Construction Name
  Thermal Zone 5,                         !- Zone Name
  Story 1 Core Space,                     !- Space Name
  Ground,                                 !- Outside Boundary Condition
  ,                                       !- Outside Boundary Condition Object
  NoSun,                                  !- Sun Exposure
  NoWind,                                 !- Wind Exposure
  ,                                       !- View Factor to Ground
  ,                                       !- Number of Vertices
  30.86, 10.86, 0,                        !- X,Y,Z Vertex 1 {m}
  30.86, 0, 0,                            !- X,Y,Z Vertex 2 {m}
  0, 0, 0,                                !- X,Y,Z Vertex 3 {m}
  0, 10.86, 0;                            !- X,Y,Z Vertex 4 {m}

BuildingSurface:Detailed,
  Surface 26,                             !- Name
  Wall,                                   !- Surface Type
  000 Interior Wall,                      !- Construction Name
  Thermal Zone 5,                         !- Zone Name
  Story 1 Core Space,                     !- Space Name
  Surface,                                !- Outside Boundary Condition
  Surface 4,                              !- Outside Boundary Condition Object
  NoSun,                                  !- Sun Exposure
  NoWind,                                 !- Wind Exposure
  ,                                       !- View Factor to Ground
  ,                                       !- Number of Vertices
  0, 10.86, 3.8,                          !- X,Y,Z Vertex 1 {m}
  0, 10.86, 0,                            !- X,Y,Z Vertex 2 {m}
  0, 0, 0,                                !- X,Y,Z Vertex 3 {m}
  0, 0, 3.8;                              !- X,Y,Z Vertex 4 {m}

BuildingSurface:Detailed,
  Surface 27,                             !- Name
  Wall,                                   !- Surface Type
  000 Interior Wall,                      !- Construction Name
  Thermal Zone 5,                         !- Zone Name
  Story 1 Core Space,                     !- Space Name
  Surface,                                !- Outside Boundary Condition
  Surface 10,                             !- Outside Boundary Condition Object
  NoSun,                                  !- Sun Exposure
  NoWind,                                 !- Wind Exposure
  ,                                       !- View Factor to Ground
  ,                                       !- Number of Vertices
  30.86, 10.86, 3.8,                      !- X,Y,Z Vertex 1 {m}
  30.86, 10.86, 0,                        !- X,Y,Z Vertex 2 {m}
  0, 10.86, 0,                            !- X,Y,Z Vertex 3 {m}
  0, 10.86, 3.8;                          !- X,Y,Z Vertex 4 {m}

BuildingSurface:Detailed,
  Surface 28,                             !- Name
  Wall,                                   !- Surface Type
  000 Interior Wall,                      !- Construction Name
  Thermal Zone 5,                         !- Zone Name
  Story 1 Core Space,                     !- Space Name
  Surface,                                !- Outside Boundary Condition
  Surface 16,                             !- Outside Boundary Condition Object
  NoSun,                                  !- Sun Exposure
  NoWind,                                 !- Wind Exposure
  ,                                       !- View Factor to Ground
  ,                                       !- Number of Vertices
  30.86, 0, 3.8,                          !- X,Y,Z Vertex 1 {m}
  30.86, 0, 0,                            !- X,Y,Z Vertex 2 {m}
  30.86, 10.86, 0,                        !- X,Y,Z Vertex 3 {m}
  30.86, 10.86, 3.8;                      !- X,Y,Z Vertex 4 {m}

BuildingSurface:Detailed,
  Surface 29,                             !- Name
  Wall,                                   !- Surface Type
  000 Interior Wall,                      !- Construction Name
  Thermal Zone 5,                         !- Zone Name
  Story 1 Core Space,                     !- Space Name
  Surface,                                !- Outside Boundary Condition
  Surface 22,                             !- Outside Boundary Condition Object
  NoSun,                                  !- Sun Exposure
  NoWind,                                 !- Wind Exposure
  ,                                       !- View Factor to Ground
  ,                                       !- Number of Vertices
  0, 0, 3.8,                              !- X,Y,Z Vertex 1 {m}
  0, 0, 0,                                !- X,Y,Z Vertex 2 {m}
  30.86, 0, 0,                            !- X,Y,Z Vertex 3 {m}
  30.86, 0, 3.8;                          !- X,Y,Z Vertex 4 {m}

BuildingSurface:Detailed,
  Surface 30,                             !- Name
  Roof,                                   !- Surface Type
  ASHRAE 189.1-2009 ExtRoof IEAD ClimateZone 2-5, !- Construction Name
  Thermal Zone 5,                         !- Zone Name
  Story 1 Core Space,                     !- Space Name
  Outdoors,                               !- Outside Boundary Condition
  ,                                       !- Outside Boundary Condition Object
  SunExposed,                             !- Sun Exposure
  WindExposed,                            !- Wind Exposure
  ,                                       !- View Factor to Ground
  ,                                       !- Number of Vertices
  30.86, 0, 3.8,                          !- X,Y,Z Vertex 1 {m}
  30.86, 10.86, 3.8,                      !- X,Y,Z Vertex 2 {m}
  0, 10.86, 3.8,                          !- X,Y,Z Vertex 3 {m}
  0, 0, 3.8;                              !- X,Y,Z Vertex 4 {m}

ZoneControl:Thermostat,
  Thermal Zone 5 Thermostat,              !- Name
  Thermal Zone 5,                         !- Zone or ZoneList Name
  Thermal Zone 5 Thermostat Schedule,     !- Control Type Schedule Name
  ThermostatSetpoint:DualSetpoint,        !- Control 1 Object Type
  Thermal Zone 5 Thermostat,              !- Control 1 Name
  ,                                       !- Control 2 Object Type
  ,                                       !- Control 2 Name
  ,                                       !- Control 3 Object Type
  ,                                       !- Control 3 Name
  ,                                       !- Control 4 Object Type
  ,                                       !- Control 4 Name
  0;                                      !- Temperature Difference Between Cutout And Setpoint {deltaC}

Schedule:Compact,
  Thermal Zone 5 Thermostat Schedule,     !- Name
  Thermal Zone 5 Thermostat Schedule Type Limits, !- Schedule Type Limits Name
  Through: 12/31,                         !- Field 1
  For: AllDays,                           !- Field 2
  Until: 24:00,                           !- Field 3
  4;                                      !- Field 4

ScheduleTypeLimits,
  Thermal Zone 5 Thermostat Schedule Type Limits, !- Name
  0,                                      !- Lower Limit Value {BasedOnField A3}
  4,                                      !- Upper Limit Value {BasedOnField A3}
  DISCRETE;                               !- Numeric Type

ThermostatSetpoint:DualSetpoint,
  Thermal Zone 5 Thermostat,              !- Name
  Small Office HtgSetp,                   !- Heating Setpoint Temperature Schedule Name
  Small Office ClgSetp;                   !- Cooling Setpoint Temperature Schedule Name

HVACTemplate:Zone:IdealLoadsAirSystem,
  Thermal Zone 5,                         !- Zone Name
  ,                                       !- Template Thermostat Name
  ,                                       !- System Availability Schedule Name
  ,                                       !- Maximum Heating Supply Air Temperature {C}
  ,                                       !- Minimum Cooling Supply Air Temperature {C}
  ,                                       !- Maximum Heating Supply Air Humidity Ratio {kgWater/kgDryAir}
  ,                                       !- Minimum Cooling Supply Air Humidity Ratio {kgWater/kgDryAir}
  ,                                       !- Heating Limit
  ,                                       !- Maximum Heating Air Flow Rate {m3/s}
  ,                                       !- Maximum Sensible Heating Capacity {W}
  ,                                       !- Cooling Limit
  ,                                       !- Maximum Cooling Air Flow Rate {m3/s}
  ,                                       !- Maximum Total Cooling Capacity {W}
  ,                                       !- Heating Availability Schedule Name
  ,                                       !- Cooling Availability Schedule Name
  ,                                       !- Dehumidification Control Type
  ,                                       !- Cooling Sensible Heat Ratio {dimensionless}
  ,                                       !- Dehumidification Setpoint {percent}
  ,                                       !- Humidification Control Type
  ,                                       !- Humidification Setpoint {percent}
  ,                                       !- Outdoor Air Method
  ,                                       !- Outdoor Air Flow Rate per Person {m3/s}
  ,                                       !- Outdoor Air Flow Rate per Zone Floor Area {m3/s-m2}
  ,                                       !- Outdoor Air Flow Rate per Zone {m3/s}
  ,                                       !- Design Specification Outdoor Air Object Name
  ;                                       !- Demand Controlled Ventilation Type

Sizing:Zone,
  Thermal Zone 5,                         !- Zone or ZoneList Name
  SupplyAirTemperature,                   !- Zone Cooling Design Supply Air Temperature Input Method
  14,                                     !- Zone Cooling Design Supply Air Temperature {C}
  11.11,                                  !- Zone Cooling Design Supply Air Temperature Difference {deltaC}
  SupplyAirTemperature,                   !- Zone Heating Design Supply Air Temperature Input Method
  40,                                     !- Zone Heating Design Supply Air Temperature {C}
  11.11,                                  !- Zone Heating Design Supply Air Temperature Difference {deltaC}
  0.0085,                                 !- Zone Cooling Design Supply Air Humidity Ratio {kgWater/kgDryAir}
  0.008,                                  !- Zone Heating Design Supply Air Humidity Ratio {kgWater/kgDryAir}
  Thermal Zone 5 DSOA Space List,         !- Design Specification Outdoor Air Object Name
  ,                                       !- Zone Heating Sizing Factor
  ,                                       !- Zone Cooling Sizing Factor
  DesignDay,                              !- Cooling Design Air Flow Method
  0,                                      !- Cooling Design Air Flow Rate {m3/s}
  0.000762,                               !- Cooling Minimum Air Flow per Zone Floor Area {m3/s-m2}
  0,                                      !- Cooling Minimum Air Flow {m3/s}
  0,                                      !- Cooling Minimum Air Flow Fraction
  DesignDay,                              !- Heating Design Air Flow Method
  0,                                      !- Heating Design Air Flow Rate {m3/s}
  0.002032,                               !- Heating Maximum Air Flow per Zone Floor Area {m3/s-m2}
  0.1415762,                              !- Heating Maximum Air Flow {m3/s}
  0.3,                                    !- Heating Maximum Air Flow Fraction
  ,                                       !- Design Specification Zone Air Distribution Object Name
  No,                                     !- Account for Dedicated Outdoor Air System
  ,                                       !- Dedicated Outdoor Air System Control Strategy
  ,                                       !- Dedicated Outdoor Air Low Setpoint Temperature for Design {C}
  ,                                       !- Dedicated Outdoor Air High Setpoint Temperature for Design {C}
  Sensible Load Only No Latent Load,      !- Zone Load Sizing Method
  HumidityRatioDifference,                !- Zone Latent Cooling Design Supply Air Humidity Ratio Input Method
  ,                                       !- Zone Dehumidification Design Supply Air Humidity Ratio {kgWater/kgDryAir}
  0.005,                                  !- Zone Cooling Design Supply Air Humidity Ratio Difference {kgWater/kgDryAir}
  HumidityRatioDifference,                !- Zone Latent Heating Design Supply Air Humidity Ratio Input Method
  ,                                       !- Zone Humidification Design Supply Air Humidity Ratio {kgWater/kgDryAir}
  0.005,                                  !- Zone Humidification Design Supply Air Humidity Ratio Difference {kgWater/kgDryAir}
  ,                                       !- Zone Humidistat Dehumidification Set Point Schedule Name
  ,                                       !- Zone Humidistat Humidification Set Point Schedule Name
  Coincident;                             !- Type of Space Sum to Use

DesignSpecification:OutdoorAir:SpaceList,
  Thermal Zone 5 DSOA Space List,         !- Name
  Story 1 Core Space,                     !- Space Name 1
  SmallOffice Outdoor Air;                !- Space Design Specification Outdoor Air Object Name 1

ZoneVentilation:DesignFlowRate,
  Thermal Zone 5 Ventilation per Person,  !- Name
  Thermal Zone 5,                         !- Zone or ZoneList or Space or SpaceList Name
  Small Office Bldg Occ,                  !- Schedule Name
  Flow/Person,                            !- Design Flow Rate Calculation Method
  ,                                       !- Design Flow Rate {m3/s}
  ,                                       !- Flow Rate per Floor Area {m3/s-m2}
  0.0107645200000431,                     !- Flow Rate per Person {m3/s-person}
  ,                                       !- Air Changes per Hour {1/hr}
  ,                                       !- Ventilation Type
  ,                                       !- Fan Pressure Rise {Pa}
  ,                                       !- Fan Total Efficiency
  ,                                       !- Constant Term Coefficient
  ,                                       !- Temperature Term Coefficient
  ,                                       !- Velocity Term Coefficient
  ;                                       !- Velocity Squared Term Coefficient

SimulationControl,
  Yes,                                    !- Do Zone Sizing Calculation
  Yes,                                    !- Do System Sizing Calculation
  No,                                     !- Do Plant Sizing Calculation
  Yes,                                    !- Run Simulation for Sizing Periods
  No,                                     !- Run Simulation for Weather File Run Periods
  Yes,                                    !- Do HVAC Sizing Simulation for Sizing Periods
  1;                                      !- Maximum Number of HVAC Sizing Simulation Passes

ConvergenceLimits,
  1;                                      !- Minimum System Timestep {minutes}

HeatBalanceAlgorithm,
  ConductionTransferFunction,             !- Algorithm
  200;                                    !- Surface Temperature Upper Limit {C}

RunPeriod,
  Run Period 1,                           !- Name
  1,                                      !- Begin Month
  1,                                      !- Begin Day of Month
  2006,                                   !- Begin Year
  12,                                     !- End Month
  31,                                     !- End Day of Month
  2006,                                   !- End Year
  Sunday,                                 !- Day of Week for Start Day
  No,                                     !- Use Weather File Holidays and Special Days
  No,                                     !- Use Weather File Daylight Saving Period
  No,                                     !- Apply Weekend Holiday Rule
  Yes,                                    !- Use Weather File Rain Indicators
  Yes;                                    !- Use Weather File Snow Indicators

ShadowCalculation,
  PolygonClipping,                        !- Shading Calculation Method
  Periodic,                               !- Shading Calculation Update Frequency Method
  7,                                      !- Shading Calculation Update Frequency
  15000,                                  !- Maximum Figures in Shadow Overlap Calculations
  SutherlandHodgman,                      !- Polygon Clipping Algorithm
  512,                                    !- Pixel Counting Resolution
  SimpleSkyDiffuseModeling,               !- Sky Diffuse Modeling Algorithm
  No,                                     !- Output External Shading Calculation Results
  No,                                     !- Disable Self-Shading Within Shading Zone Groups
  No;                                     !- Disable Self-Shading From Shading Zone Groups to Other Zones

SurfaceConvectionAlgorithm:Inside,
  TARP;                                   !- Algorithm

SurfaceConvectionAlgorithm:Outside,
  DOE-2;                                  !- Algorithm

Sizing:Parameters,
  1.25,                                   !- Heating Sizing Factor
  1.15;                                   !- Cooling Sizing Factor

ZoneAirContaminantBalance,
  No;                                     !- Carbon Dioxide Concentration

ZoneAirHeatBalanceAlgorithm,
  AnalyticalSolution,                     !- Algorithm
  No,                                     !- Do Space Heat Balance for Sizing
  No;                                     !- Do Space Heat Balance for Simulation

ZoneCapacitanceMultiplier:ResearchSpecial,
  Zone Capacitance Multiplier Research Special, !- Name
  ,                                       !- Zone or ZoneList Name
  ,                                       !- Temperature Capacity Multiplier
  ,                                       !- Humidity Capacity Multiplier
  ,                                       !- Carbon Dioxide Capacity Multiplier
  ;                                       !- Generic Contaminant Capacity Multiplier

Output:Table:SummaryReports,
  AllSummary;                             !- Report Name 1

GlobalGeometryRules,
  UpperLeftCorner,                        !- Starting Vertex Position
  Counterclockwise,                       !- Vertex Entry Direction
  Relative,                               !- Coordinate System
  Relative,                               !- Daylighting Reference Point Coordinate System
  Relative;                               !- Rectangular Surface Coordinate System

Material,
  000 F08 Metal surface,                  !- Name
  Smooth,                                 !- Roughness
  0.0008,                                 !- Thickness {m}
  45.28,                                  !- Conductivity {W/m-K}
  7824,                                   !- Density {kg/m3}
  500,                                    !- Specific Heat {J/kg-K}
  0.9,                                    !- Thermal Absorptance
  0.7,                                    !- Solar Absorptance
  0.7;                                    !- Visible Absorptance

Material,
  000 F16 Acoustic tile,                  !- Name
  MediumSmooth,                           !- Roughness
  0.0191,                                 !- Thickness {m}
  0.06,                                   !- Conductivity {W/m-K}
  368,                                    !- Density {kg/m3}
  590,                                    !- Specific Heat {J/kg-K}
  0.9,                                    !- Thermal Absorptance
  0.7,                                    !- Solar Absorptance
  0.7;                                    !- Visible Absorptance

Material,
  000 G01a 19mm gypsum board,             !- Name
  MediumSmooth,                           !- Roughness
  0.019,                                  !- Thickness {m}
  0.16,                                   !- Conductivity {W/m-K}
  800,                                    !- Density {kg/m3}
  1090,                                   !- Specific Heat {J/kg-K}
  0.9,                                    !- Thermal Absorptance
  0.7,                                    !- Solar Absorptance
  0.7;                                    !- Visible Absorptance

Material,
  000 G05 25mm wood,                      !- Name
  MediumSmooth,                           !- Roughness
  0.0254,                                 !- Thickness {m}
  0.15,                                   !- Conductivity {W/m-K}
  608,                                    !- Density {kg/m3}
  1630,                                   !- Specific Heat {J/kg-K}
  0.9,                                    !- Thermal Absorptance
  0.7,                                    !- Solar Absorptance
  0.7;                                    !- Visible Absorptance

Material,
  000 I01 25mm insulation board,          !- Name
  MediumRough,                            !- Roughness
  0.0254,                                 !- Thickness {m}
  0.03,                                   !- Conductivity {W/m-K}
  43,                                     !- Density {kg/m3}
  1210,                                   !- Specific Heat {J/kg-K}
  0.9,                                    !- Thermal Absorptance
  0.7,                                    !- Solar Absorptance
  0.7;                                    !- Visible Absorptance

Material,
  000 I02 50mm insulation board,          !- Name
  MediumRough,                            !- Roughness
  0.0508,                                 !- Thickness {m}
  0.03,                                   !- Conductivity {W/m-K}
  43,                                     !- Density {kg/m3}
  1210,                                   !- Specific Heat {J/kg-K}
  0.9,                                    !- Thermal Absorptance
  0.7,                                    !- Solar Absorptance
  0.7;                                    !- Visible Absorptance

Material,
  000 M01 100mm brick,                    !- Name
  MediumRough,                            !- Roughness
  0.1016,                                 !- Thickness {m}
  0.89,                                   !- Conductivity {W/m-K}
  1920,                                   !- Density {kg/m3}
  790,                                    !- Specific Heat {J/kg-K}
  0.9,                                    !- Thermal Absorptance
  0.7,                                    !- Solar Absorptance
  0.7;                                    !- Visible Absorptance

Material,
  000 M05 200mm concrete block,           !- Name
  MediumRough,                            !- Roughness
  0.2032,                                 !- Thickness {m}
  1.11,                                   !- Conductivity {W/m-K}
  800,                                    !- Density {kg/m3}
  920,                                    !- Specific Heat {J/kg-K}
  0.9,                                    !- Thermal Absorptance
  0.7,                                    !- Solar Absorptance
  0.7;                                    !- Visible Absorptance

Material,
  000 M11 100mm lightweight concrete,     !- Name
  MediumRough,                            !- Roughness
  0.1016,                                 !- Thickness {m}
  0.53,                                   !- Conductivity {W/m-K}
  1280,                                   !- Density {kg/m3}
  840,                                    !- Specific Heat {J/kg-K}
  0.9,                                    !- Thermal Absorptance
  0.7,                                    !- Solar Absorptance
  0.7;                                    !- Visible Absorptance

Material,
  000 M15 200mm heavyweight concrete,     !- Name
  MediumRough,                            !- Roughness
  0.2032,                                 !- Thickness {m}
  1.95,                                   !- Conductivity {W/m-K}
  2240,                                   !- Density {kg/m3}
  900,                                    !- Specific Heat {J/kg-K}
  0.9,                                    !- Thermal Absorptance
  0.7,                                    !- Solar Absorptance
  0.7;                                    !- Visible Absorptance

Material,
  1/2IN Gypsum,                           !- Name
  Smooth,                                 !- Roughness
  0.0127,                                 !- Thickness {m}
  0.16,                                   !- Conductivity {W/m-K}
  784.9,                                  !- Density {kg/m3}
  830,                                    !- Specific Heat {J/kg-K}
  0.9,                                    !- Thermal Absorptance
  0.92,                                   !- Solar Absorptance
  0.92;                                   !- Visible Absorptance

Material,
  1IN Stucco,                             !- Name
  Smooth,                                 !- Roughness
  0.0253,                                 !- Thickness {m}
  0.6918,                                 !- Conductivity {W/m-K}
  1858,                                   !- Density {kg/m3}
  837,                                    !- Specific Heat {J/kg-K}
  0.9,                                    !- Thermal Absorptance
  0.92,                                   !- Solar Absorptance
  0.92;                                   !- Visible Absorptance

Material,
  8IN Concrete HW,                        !- Name
  MediumRough,                            !- Roughness
  0.2033,                                 !- Thickness {m}
  1.7296,                                 !- Conductivity {W/m-K}
  2243,                                   !- Density {kg/m3}
  837,                                    !- Specific Heat {J/kg-K}
  0.9,                                    !- Thermal Absorptance
  0.65,                                   !- Solar Absorptance
  0.65;                                   !- Visible Absorptance

Material,
  8IN CONCRETE HW RefBldg,                !- Name
  Rough,                                  !- Roughness
  0.2032,                                 !- Thickness {m}
  1.311,                                  !- Conductivity {W/m-K}
  2240,                                   !- Density {kg/m3}
  836.8,                                  !- Specific Heat {J/kg-K}
  0.9,                                    !- Thermal Absorptance
  0.7,                                    !- Solar Absorptance
  0.7;                                    !- Visible Absorptance

Material,
  AtticFloor Insulation,                  !- Name
  MediumRough,                            !- Roughness
  0.2379,                                 !- Thickness {m}
  0.049,                                  !- Conductivity {W/m-K}
  265,                                    !- Density {kg/m3}
  836.8,                                  !- Specific Heat {J/kg-K}
  0.9,                                    !- Thermal Absorptance
  0.7,                                    !- Solar Absorptance
  0.7;                                    !- Visible Absorptance

Material,
  AtticFloor NonRes Insulation-1.76,      !- Name
  MediumRough,                            !- Roughness
  0.0666101193201832,                     !- Thickness {m}
  0.049,                                  !- Conductivity {W/m-K}
  265,                                    !- Density {kg/m3}
  836.8,                                  !- Specific Heat {J/kg-K}
  0.9,                                    !- Thermal Absorptance
  0.7,                                    !- Solar Absorptance
  0.7;                                    !- Visible Absorptance

Material,
  AtticFloor NonRes Insulation-2.00,      !- Name
  MediumRough,                            !- Roughness
  0.0783780273543822,                     !- Thickness {m}
  0.049,                                  !- Conductivity {W/m-K}
  265,                                    !- Density {kg/m3}
  836.8,                                  !- Specific Heat {J/kg-K}
  0.9,                                    !- Thermal Absorptance
  0.7,                                    !- Solar Absorptance
  0.7;                                    !- Visible Absorptance

Material,
  AtticFloor NonRes Insulation-2.38,      !- Name
  MediumRough,                            !- Roughness
  0.0969310355164076,                     !- Thickness {m}
  0.049,                                  !- Conductivity {W/m-K}
  265,                                    !- Density {kg/m3}
  836.8,                                  !- Specific Heat {J/kg-K}
  0.9,                                    !- Thermal Absorptance
  0.7,                                    !- Solar Absorptance
  0.7;                                    !- Visible Absorptance

Material,
  AtticFloor NonRes Insulation-2.45,      !- Name
  MediumRough,                            !- Roughness
  0.100170449639936,                      !- Thickness {m}
  0.049,                                  !- Conductivity {W/m-K}
  265,                                    !- Density {kg/m3}
  836.8,                                  !- Specific Heat {J/kg-K}
  0.9,                                    !- Thermal Absorptance
  0.7,                                    !- Solar Absorptance
  0.7;                                    !- Visible Absorptance

Material,
  AtticFloor NonRes Insulation-2.67,      !- Name
  MediumRough,                            !- Roughness
  0.111066660782713,                      !- Thickness {m}
  0.049,                                  !- Conductivity {W/m-K}
  265,                                    !- Density {kg/m3}
  836.8,                                  !- Specific Heat {J/kg-K}
  0.9,                                    !- Thermal Absorptance
  0.7,                                    !- Solar Absorptance
  0.7;                                    !- Visible Absorptance

Material,
  AtticFloor NonRes Insulation-2.75,      !- Name
  MediumRough,                            !- Roughness
  0.115152739961254,                      !- Thickness {m}
  0.049,                                  !- Conductivity {W/m-K}
  265,                                    !- Density {kg/m3}
  836.8,                                  !- Specific Heat {J/kg-K}
  0.9,                                    !- Thermal Absorptance
  0.7,                                    !- Solar Absorptance
  0.7;                                    !- Visible Absorptance

Material,
  AtticFloor NonRes Insulation-2.99,      !- Name
  MediumRough,                            !- Roughness
  0.12657991054531,                       !- Thickness {m}
  0.049,                                  !- Conductivity {W/m-K}
  265,                                    !- Density {kg/m3}
  836.8,                                  !- Specific Heat {J/kg-K}
  0.9,                                    !- Thermal Absorptance
  0.7,                                    !- Solar Absorptance
  0.7;                                    !- Visible Absorptance

Material,
  AtticFloor NonRes Insulation-3.04,      !- Name
  MediumRough,                            !- Roughness
  0.129101768881102,                      !- Thickness {m}
  0.049,                                  !- Conductivity {W/m-K}
  265,                                    !- Density {kg/m3}
  836.8,                                  !- Specific Heat {J/kg-K}
  0.9,                                    !- Thermal Absorptance
  0.7,                                    !- Solar Absorptance
  0.7;                                    !- Visible Absorptance

Material,
  AtticFloor NonRes Insulation-3.32,      !- Name
  MediumRough,                            !- Roughness
  0.145813765302359,                      !- Thickness {m}
  0.049,                                  !- Conductivity {W/m-K}
  265,                                    !- Density {kg/m3}
  836.8,                                  !- Specific Heat {J/kg-K}
  0.9,                                    !- Thermal Absorptance
  0.7,                                    !- Solar Absorptance
  0.7;                                    !- Visible Absorptance

Material,
  AtticFloor NonRes Insulation-3.45,      !- Name
  MediumRough,                            !- Roughness
  0.152199114340523,                      !- Thickness {m}
  0.049,                                  !- Conductivity {W/m-K}
  265,                                    !- Density {kg/m3}
  836.8,                                  !- Specific Heat {J/kg-K}
  0.9,                                    !- Thermal Absorptance
  0.7,                                    !- Solar Absorptance
  0.7;                                    !- Visible Absorptance

Material,
  AtticFloor NonRes Insulation-3.59,      !- Name
  MediumRough,                            !- Roughness
  0.159105716361395,                      !- Thickness {m}
  0.049,                                  !- Conductivity {W/m-K}
  265,                                    !- Density {kg/m3}
  836.8,                                  !- Specific Heat {J/kg-K}
  0.9,                                    !- Thermal Absorptance
  0.7,                                    !- Solar Absorptance
  0.7;                                    !- Visible Absorptance

Material,
  AtticFloor NonRes Insulation-3.67,      !- Name
  MediumRough,                            !- Roughness
  0.160099610925208,                      !- Thickness {m}
  0.049,                                  !- Conductivity {W/m-K}
  265,                                    !- Density {kg/m3}
  836.8,                                  !- Specific Heat {J/kg-K}
  0.9,                                    !- Thermal Absorptance
  0.7,                                    !- Solar Absorptance
  0.7;                                    !- Visible Absorptance

Material,
  AtticFloor NonRes Insulation-3.83,      !- Name
  MediumRough,                            !- Roughness
  0.167916458049374,                      !- Thickness {m}
  0.049,                                  !- Conductivity {W/m-K}
  265,                                    !- Density {kg/m3}
  836.8,                                  !- Specific Heat {J/kg-K}
  0.9,                                    !- Thermal Absorptance
  0.7,                                    !- Solar Absorptance
  0.7;                                    !- Visible Absorptance

Material,
  AtticFloor NonRes Insulation-3.91,      !- Name
  MediumRough,                            !- Roughness
  0.174760680942037,                      !- Thickness {m}
  0.049,                                  !- Conductivity {W/m-K}
  265,                                    !- Density {kg/m3}
  836.8,                                  !- Specific Heat {J/kg-K}
  0.9,                                    !- Thermal Absorptance
  0.7,                                    !- Solar Absorptance
  0.7;                                    !- Visible Absorptance

Material,
  AtticFloor NonRes Insulation-4.40,      !- Name
  MediumRough,                            !- Roughness
  0.196057107696372,                      !- Thickness {m}
  0.049,                                  !- Conductivity {W/m-K}
  265,                                    !- Density {kg/m3}
  836.8,                                  !- Specific Heat {J/kg-K}
  0.9,                                    !- Thermal Absorptance
  0.7,                                    !- Solar Absorptance
  0.7;                                    !- Visible Absorptance

Material,
  AtticFloor NonRes Insulation-5.18,      !- Name
  MediumRough,                            !- Roughness
  0.302609558350619,                      !- Thickness {m}
  0.049,                                  !- Conductivity {W/m-K}
  265,                                    !- Density {kg/m3}
  836.8,                                  !- Specific Heat {J/kg-K}
  0.9,                                    !- Thermal Absorptance
  0.7,                                    !- Solar Absorptance
  0.7;                                    !- Visible Absorptance

Material,
  AtticFloor NonRes Insulation-5.68,      !- Name
  MediumRough,                            !- Roughness
  0.261367984993012,                      !- Thickness {m}
  0.049,                                  !- Conductivity {W/m-K}
  265,                                    !- Density {kg/m3}
  836.8,                                  !- Specific Heat {J/kg-K}
  0.9,                                    !- Thermal Absorptance
  0.7,                                    !- Solar Absorptance
  0.7;                                    !- Visible Absorptance

Material,
  AtticFloor NonRes Insulation-6.52,      !- Name
  MediumRough,                            !- Roughness
  0.30260955835062,                       !- Thickness {m}
  0.049,                                  !- Conductivity {W/m-K}
  265,                                    !- Density {kg/m3}
  836.8,                                  !- Specific Heat {J/kg-K}
  0.9,                                    !- Thermal Absorptance
  0.7,                                    !- Solar Absorptance
  0.7;                                    !- Visible Absorptance

Material,
  AtticFloor Res Insulation-2.05,         !- Name
  MediumRough,                            !- Roughness
  0.0806586296865913,                     !- Thickness {m}
  0.049,                                  !- Conductivity {W/m-K}
  265,                                    !- Density {kg/m3}
  836.8,                                  !- Specific Heat {J/kg-K}
  0.9,                                    !- Thermal Absorptance
  0.7,                                    !- Solar Absorptance
  0.7;                                    !- Visible Absorptance

Material,
  AtticFloor Res Insulation-2.37,         !- Name
  MediumRough,                            !- Roughness
  0.0965373546328396,                     !- Thickness {m}
  0.049,                                  !- Conductivity {W/m-K}
  265,                                    !- Density {kg/m3}
  836.8,                                  !- Specific Heat {J/kg-K}
  0.9,                                    !- Thermal Absorptance
  0.7,                                    !- Solar Absorptance
  0.7;                                    !- Visible Absorptance

Material,
  AtticFloor Res Insulation-2.93,         !- Name
  MediumRough,                            !- Roughness
  0.124142114154045,                      !- Thickness {m}
  0.049,                                  !- Conductivity {W/m-K}
  265,                                    !- Density {kg/m3}
  836.8,                                  !- Specific Heat {J/kg-K}
  0.9,                                    !- Thermal Absorptance
  0.7,                                    !- Solar Absorptance
  0.7;                                    !- Visible Absorptance

Material,
  IEAD NonRes Roof Insulation-1.76,       !- Name
  MediumRough,                            !- Roughness
  0.0739805029798716,                     !- Thickness {m}
  0.049,                                  !- Conductivity {W/m-K}
  265,                                    !- Density {kg/m3}
  836.8,                                  !- Specific Heat {J/kg-K}
  0.9,                                    !- Thermal Absorptance
  0.7,                                    !- Solar Absorptance
  0.7;                                    !- Visible Absorptance

Material,
  IEAD NonRes Roof Insulation-1.98,       !- Name
  MediumRough,                            !- Roughness
  0.0846465469659246,                     !- Thickness {m}
  0.049,                                  !- Conductivity {W/m-K}
  265,                                    !- Density {kg/m3}
  836.8,                                  !- Specific Heat {J/kg-K}
  0.9,                                    !- Thermal Absorptance
  0.7,                                    !- Solar Absorptance
  0.7;                                    !- Visible Absorptance

Material,
  IEAD NonRes Roof Insulation-2.00,       !- Name
  MediumRough,                            !- Roughness
  0.0857484110140705,                     !- Thickness {m}
  0.049,                                  !- Conductivity {W/m-K}
  265,                                    !- Density {kg/m3}
  836.8,                                  !- Specific Heat {J/kg-K}
  0.9,                                    !- Thermal Absorptance
  0.7,                                    !- Solar Absorptance
  0.7;                                    !- Visible Absorptance

Material,
  IEAD NonRes Roof Insulation-2.04,       !- Name
  MediumRough,                            !- Roughness
  0.0880290133462796,                     !- Thickness {m}
  0.049,                                  !- Conductivity {W/m-K}
  265,                                    !- Density {kg/m3}
  836.8,                                  !- Specific Heat {J/kg-K}
  0.9,                                    !- Thermal Absorptance
  0.7,                                    !- Solar Absorptance
  0.7;                                    !- Visible Absorptance

Material,
  IEAD NonRes Roof Insulation-2.07,       !- Name
  MediumRough,                            !- Roughness
  0.0892095604358938,                     !- Thickness {m}
  0.049,                                  !- Conductivity {W/m-K}
  265,                                    !- Density {kg/m3}
  836.8,                                  !- Specific Heat {J/kg-K}
  0.9,                                    !- Thermal Absorptance
  0.7,                                    !- Solar Absorptance
  0.7;                                    !- Visible Absorptance

Material,
  IEAD NonRes Roof Insulation-2.37,       !- Name
  MediumRough,                            !- Roughness
  0.103907738292528,                      !- Thickness {m}
  0.049,                                  !- Conductivity {W/m-K}
  265,                                    !- Density {kg/m3}
  836.8,                                  !- Specific Heat {J/kg-K}
  0.9,                                    !- Thermal Absorptance
  0.7,                                    !- Solar Absorptance
  0.7;                                    !- Visible Absorptance

Material,
  IEAD NonRes Roof Insulation-2.38,       !- Name
  MediumRough,                            !- Roughness
  0.1043014191761,                        !- Thickness {m}
  0.049,                                  !- Conductivity {W/m-K}
  265,                                    !- Density {kg/m3}
  836.8,                                  !- Specific Heat {J/kg-K}
  0.9,                                    !- Thermal Absorptance
  0.7,                                    !- Solar Absorptance
  0.7;                                    !- Visible Absorptance

Material,
  IEAD NonRes Roof Insulation-2.44,       !- Name
  MediumRough,                            !- Roughness
  0.107540833299624,                      !- Thickness {m}
  0.049,                                  !- Conductivity {W/m-K}
  265,                                    !- Density {kg/m3}
  836.8,                                  !- Specific Heat {J/kg-K}
  0.9,                                    !- Thermal Absorptance
  0.7,                                    !- Solar Absorptance
  0.7;                                    !- Visible Absorptance

Material,
  IEAD NonRes Roof Insulation-2.50,       !- Name
  MediumRough,                            !- Roughness
  0.110216071059399,                      !- Thickness {m}
  0.049,                                  !- Conductivity {W/m-K}
  265,                                    !- Density {kg/m3}
  836.8,                                  !- Specific Heat {J/kg-K}
  0.9,                                    !- Thermal Absorptance
  0.7,                                    !- Solar Absorptance
  0.7;                                    !- Visible Absorptance

Material,
  IEAD NonRes Roof Insulation-2.67,       !- Name
  MediumRough,                            !- Roughness
  0.118437044442401,                      !- Thickness {m}
  0.049,                                  !- Conductivity {W/m-K}
  265,                                    !- Density {kg/m3}
  836.8,                                  !- Specific Heat {J/kg-K}
  0.9,                                    !- Thermal Absorptance
  0.7,                                    !- Solar Absorptance
  0.7;                                    !- Visible Absorptance

Material,
  IEAD NonRes Roof Insulation-2.75,       !- Name
  MediumRough,                            !- Roughness
  0.122523123620942,                      !- Thickness {m}
  0.049,                                  !- Conductivity {W/m-K}
  265,                                    !- Density {kg/m3}
  836.8,                                  !- Specific Heat {J/kg-K}
  0.9,                                    !- Thermal Absorptance
  0.7,                                    !- Solar Absorptance
  0.7;                                    !- Visible Absorptance

Material,
  IEAD NonRes Roof Insulation-2.79,       !- Name
  MediumRough,                            !- Roughness
  0.124663450809702,                      !- Thickness {m}
  0.049,                                  !- Conductivity {W/m-K}
  265,                                    !- Density {kg/m3}
  836.8,                                  !- Specific Heat {J/kg-K}
  0.9,                                    !- Thermal Absorptance
  0.7,                                    !- Solar Absorptance
  0.7;                                    !- Visible Absorptance

Material,
  IEAD NonRes Roof Insulation-2.85,       !- Name
  MediumRough,                            !- Roughness
  0.127338688569477,                      !- Thickness {m}
  0.049,                                  !- Conductivity {W/m-K}
  265,                                    !- Density {kg/m3}
  836.8,                                  !- Specific Heat {J/kg-K}
  0.9,                                    !- Thermal Absorptance
  0.7,                                    !- Solar Absorptance
  0.7;                                    !- Visible Absorptance

Material,
  IEAD NonRes Roof Insulation-2.93,       !- Name
  MediumRough,                            !- Roughness
  0.131512497813733,                      !- Thickness {m}
  0.049,                                  !- Conductivity {W/m-K}
  265,                                    !- Density {kg/m3}
  836.8,                                  !- Specific Heat {J/kg-K}
  0.9,                                    !- Thermal Absorptance
  0.7,                                    !- Solar Absorptance
  0.7;                                    !- Visible Absorptance

Material,
  IEAD NonRes Roof Insulation-2.99,       !- Name
  MediumRough,                            !- Roughness
  0.133950294204999,                      !- Thickness {m}
  0.049,                                  !- Conductivity {W/m-K}
  265,                                    !- Density {kg/m3}
  836.8,                                  !- Specific Heat {J/kg-K}
  0.9,                                    !- Thermal Absorptance
  0.7,                                    !- Solar Absorptance
  0.7;                                    !- Visible Absorptance

Material,
  IEAD NonRes Roof Insulation-3.03,       !- Name
  MediumRough,                            !- Roughness
  0.13647215254079,                       !- Thickness {m}
  0.049,                                  !- Conductivity {W/m-K}
  265,                                    !- Density {kg/m3}
  836.8,                                  !- Specific Heat {J/kg-K}
  0.9,                                    !- Thermal Absorptance
  0.7,                                    !- Solar Absorptance
  0.7;                                    !- Visible Absorptance

Material,
  IEAD NonRes Roof Insulation-3.38,       !- Name
  MediumRough,                            !- Roughness
  0.153184148962047,                      !- Thickness {m}
  0.049,                                  !- Conductivity {W/m-K}
  265,                                    !- Density {kg/m3}
  836.8,                                  !- Specific Heat {J/kg-K}
  0.9,                                    !- Thermal Absorptance
  0.7,                                    !- Solar Absorptance
  0.7;                                    !- Visible Absorptance

Material,
  IEAD NonRes Roof Insulation-3.51,       !- Name
  MediumRough,                            !- Roughness
  0.159569498000212,                      !- Thickness {m}
  0.049,                                  !- Conductivity {W/m-K}
  265,                                    !- Density {kg/m3}
  836.8,                                  !- Specific Heat {J/kg-K}
  0.9,                                    !- Thermal Absorptance
  0.7,                                    !- Solar Absorptance
  0.7;                                    !- Visible Absorptance

Material,
  IEAD NonRes Roof Insulation-3.65,       !- Name
  MediumRough,                            !- Roughness
  0.166476100021083,                      !- Thickness {m}
  0.049,                                  !- Conductivity {W/m-K}
  265,                                    !- Density {kg/m3}
  836.8,                                  !- Specific Heat {J/kg-K}
  0.9,                                    !- Thermal Absorptance
  0.7,                                    !- Solar Absorptance
  0.7;                                    !- Visible Absorptance

Material,
  IEAD NonRes Roof Insulation-3.66,       !- Name
  MediumRough,                            !- Roughness
  0.167469994584897,                      !- Thickness {m}
  0.049,                                  !- Conductivity {W/m-K}
  265,                                    !- Density {kg/m3}
  836.8,                                  !- Specific Heat {J/kg-K}
  0.9,                                    !- Thermal Absorptance
  0.7,                                    !- Solar Absorptance
  0.7;                                    !- Visible Absorptance

Material,
  IEAD NonRes Roof Insulation-3.72,       !- Name
  MediumRough,                            !- Roughness
  0.170145232344671,                      !- Thickness {m}
  0.049,                                  !- Conductivity {W/m-K}
  265,                                    !- Density {kg/m3}
  836.8,                                  !- Specific Heat {J/kg-K}
  0.9,                                    !- Thermal Absorptance
  0.7,                                    !- Solar Absorptance
  0.7;                                    !- Visible Absorptance

Material,
  IEAD NonRes Roof Insulation-3.83,       !- Name
  MediumRough,                            !- Roughness
  0.175286841709063,                      !- Thickness {m}
  0.049,                                  !- Conductivity {W/m-K}
  265,                                    !- Density {kg/m3}
  836.8,                                  !- Specific Heat {J/kg-K}
  0.9,                                    !- Thermal Absorptance
  0.7,                                    !- Solar Absorptance
  0.7;                                    !- Visible Absorptance

Material,
  IEAD NonRes Roof Insulation-3.97,       !- Name
  MediumRough,                            !- Roughness
  0.182131064601726,                      !- Thickness {m}
  0.049,                                  !- Conductivity {W/m-K}
  265,                                    !- Density {kg/m3}
  836.8,                                  !- Specific Heat {J/kg-K}
  0.9,                                    !- Thermal Absorptance
  0.7,                                    !- Solar Absorptance
  0.7;                                    !- Visible Absorptance

Material,
  IEAD NonRes Roof Insulation-4.41,       !- Name
  MediumRough,                            !- Roughness
  0.20342749135606,                       !- Thickness {m}
  0.049,                                  !- Conductivity {W/m-K}
  265,                                    !- Density {kg/m3}
  836.8,                                  !- Specific Heat {J/kg-K}
  0.9,                                    !- Thermal Absorptance
  0.7,                                    !- Solar Absorptance
  0.7;                                    !- Visible Absorptance

Material,
  IEAD NonRes Roof Insulation-5.75,       !- Name
  MediumRough,                            !- Roughness
  0.2687383686527,                        !- Thickness {m}
  0.049,                                  !- Conductivity {W/m-K}
  265,                                    !- Density {kg/m3}
  836.8,                                  !- Specific Heat {J/kg-K}
  0.9,                                    !- Thermal Absorptance
  0.7,                                    !- Solar Absorptance
  0.7;                                    !- Visible Absorptance

Material,
  Mass NonRes Wall Insulation-0.43,       !- Name
  MediumRough,                            !- Roughness
  0.000436781426628043,                   !- Thickness {m}
  0.049,                                  !- Conductivity {W/m-K}
  265,                                    !- Density {kg/m3}
  836.8,                                  !- Specific Heat {J/kg-K}
  0.9,                                    !- Thermal Absorptance
  0.7,                                    !- Solar Absorptance
  0.7;                                    !- Visible Absorptance

Material,
  Mass NonRes Wall Insulation-0.52,       !- Name
  MediumRough,                            !- Roughness
  0.0047702530604555,                     !- Thickness {m}
  0.049,                                  !- Conductivity {W/m-K}
  265,                                    !- Density {kg/m3}
  836.8,                                  !- Specific Heat {J/kg-K}
  0.9,                                    !- Thermal Absorptance
  0.7,                                    !- Solar Absorptance
  0.7;                                    !- Visible Absorptance

Material,
  Mass NonRes Wall Insulation-0.61,       !- Name
  MediumRough,                            !- Roughness
  0.00914641899609407,                    !- Thickness {m}
  0.049,                                  !- Conductivity {W/m-K}
  265,                                    !- Density {kg/m3}
  836.8,                                  !- Specific Heat {J/kg-K}
  0.9,                                    !- Thermal Absorptance
  0.7,                                    !- Solar Absorptance
  0.7;                                    !- Visible Absorptance

Material,
  Mass NonRes Wall Insulation-0.77,       !- Name
  MediumRough,                            !- Roughness
  0.0169093568297486,                     !- Thickness {m}
  0.049,                                  !- Conductivity {W/m-K}
  265,                                    !- Density {kg/m3}
  836.8,                                  !- Specific Heat {J/kg-K}
  0.9,                                    !- Thermal Absorptance
  0.7,                                    !- Solar Absorptance
  0.7;                                    !- Visible Absorptance

Material,
  Mass NonRes Wall Insulation-0.78,       !- Name
  MediumRough,                            !- Roughness
  0.0177431538563263,                     !- Thickness {m}
  0.049,                                  !- Conductivity {W/m-K}
  265,                                    !- Density {kg/m3}
  836.8,                                  !- Specific Heat {J/kg-K}
  0.9,                                    !- Thermal Absorptance
  0.7,                                    !- Solar Absorptance
  0.7;                                    !- Visible Absorptance

Material,
  Mass NonRes Wall Insulation-0.79,       !- Name
  MediumRough,                            !- Roughness
  0.0179143800314271,                     !- Thickness {m}
  0.049,                                  !- Conductivity {W/m-K}
  265,                                    !- Density {kg/m3}
  836.8,                                  !- Specific Heat {J/kg-K}
  0.9,                                    !- Thermal Absorptance
  0.7,                                    !- Solar Absorptance
  0.7;                                    !- Visible Absorptance

Material,
  Mass NonRes Wall Insulation-0.93,       !- Name
  MediumRough,                            !- Roughness
  0.0248084865552216,                     !- Thickness {m}
  0.049,                                  !- Conductivity {W/m-K}
  265,                                    !- Density {kg/m3}
  836.8,                                  !- Specific Heat {J/kg-K}
  0.9,                                    !- Thermal Absorptance
  0.7,                                    !- Solar Absorptance
  0.7;                                    !- Visible Absorptance

Material,
  Mass NonRes Wall Insulation-0.96,       !- Name
  MediumRough,                            !- Roughness
  0.0262895733787478,                     !- Thickness {m}
  0.049,                                  !- Conductivity {W/m-K}
  265,                                    !- Density {kg/m3}
  836.8,                                  !- Specific Heat {J/kg-K}
  0.9,                                    !- Thermal Absorptance
  0.7,                                    !- Solar Absorptance
  0.7;                                    !- Visible Absorptance

Material,
  Mass NonRes Wall Insulation-0.99,       !- Name
  MediumRough,                            !- Roughness
  0.0278705087521746,                     !- Thickness {m}
  0.049,                                  !- Conductivity {W/m-K}
  265,                                    !- Density {kg/m3}
  836.8,                                  !- Specific Heat {J/kg-K}
  0.9,                                    !- Thermal Absorptance
  0.7,                                    !- Solar Absorptance
  0.7;                                    !- Visible Absorptance

Material,
  Mass NonRes Wall Insulation-1.01,       !- Name
  MediumRough,                            !- Roughness
  0.0287016290627761,                     !- Thickness {m}
  0.049,                                  !- Conductivity {W/m-K}
  265,                                    !- Density {kg/m3}
  836.8,                                  !- Specific Heat {J/kg-K}
  0.9,                                    !- Thermal Absorptance
  0.7,                                    !- Solar Absorptance
  0.7;                                    !- Visible Absorptance

Material,
  Mass NonRes Wall Insulation-1.09,       !- Name
  MediumRough,                            !- Roughness
  0.0329897280566043,                     !- Thickness {m}
  0.049,                                  !- Conductivity {W/m-K}
  265,                                    !- Density {kg/m3}
  836.8,                                  !- Specific Heat {J/kg-K}
  0.9,                                    !- Thermal Absorptance
  0.7,                                    !- Solar Absorptance
  0.7;                                    !- Visible Absorptance

Material,
  Mass NonRes Wall Insulation-1.13,       !- Name
  MediumRough,                            !- Roughness
  0.0347077164355419,                     !- Thickness {m}
  0.049,                                  !- Conductivity {W/m-K}
  265,                                    !- Density {kg/m3}
  836.8,                                  !- Specific Heat {J/kg-K}
  0.9,                                    !- Thermal Absorptance
  0.7,                                    !- Solar Absorptance
  0.7;                                    !- Visible Absorptance

Material,
  Mass NonRes Wall Insulation-1.17,       !- Name
  MediumRough,                            !- Roughness
  0.0365394788793098,                     !- Thickness {m}
  0.049,                                  !- Conductivity {W/m-K}
  265,                                    !- Density {kg/m3}
  836.8,                                  !- Specific Heat {J/kg-K}
  0.9,                                    !- Thermal Absorptance
  0.7,                                    !- Solar Absorptance
  0.7;                                    !- Visible Absorptance

Material,
  Mass NonRes Wall Insulation-1.22,       !- Name
  MediumRough,                            !- Roughness
  0.0389043473584363,                     !- Thickness {m}
  0.049,                                  !- Conductivity {W/m-K}
  265,                                    !- Density {kg/m3}
  836.8,                                  !- Specific Heat {J/kg-K}
  0.9,                                    !- Thermal Absorptance
  0.7,                                    !- Solar Absorptance
  0.7;                                    !- Visible Absorptance

Material,
  Mass NonRes Wall Insulation-1.26,       !- Name
  MediumRough,                            !- Roughness
  0.0410299136700322,                     !- Thickness {m}
  0.049,                                  !- Conductivity {W/m-K}
  265,                                    !- Density {kg/m3}
  836.8,                                  !- Specific Heat {J/kg-K}
  0.9,                                    !- Thermal Absorptance
  0.7,                                    !- Solar Absorptance
  0.7;                                    !- Visible Absorptance

Material,
  Mass NonRes Wall Insulation-1.30,       !- Name
  MediumRough,                            !- Roughness
  0.042842896700511,                      !- Thickness {m}
  0.049,                                  !- Conductivity {W/m-K}
  265,                                    !- Density {kg/m3}
  836.8,                                  !- Specific Heat {J/kg-K}
  0.9,                                    !- Thermal Absorptance
  0.7,                                    !- Solar Absorptance
  0.7;                                    !- Visible Absorptance

Material,
  Mass NonRes Wall Insulation-1.41,       !- Name
  MediumRough,                            !- Roughness
  0.0484268844343858,                     !- Thickness {m}
  0.049,                                  !- Conductivity {W/m-K}
  265,                                    !- Density {kg/m3}
  836.8,                                  !- Specific Heat {J/kg-K}
  0.9,                                    !- Thermal Absorptance
  0.7,                                    !- Solar Absorptance
  0.7;                                    !- Visible Absorptance

Material,
  Mass NonRes Wall Insulation-1.43,       !- Name
  MediumRough,                            !- Roughness
  0.0495494599433393,                     !- Thickness {m}
  0.049,                                  !- Conductivity {W/m-K}
  265,                                    !- Density {kg/m3}
  836.8,                                  !- Specific Heat {J/kg-K}
  0.9,                                    !- Thermal Absorptance
  0.7,                                    !- Solar Absorptance
  0.7;                                    !- Visible Absorptance

Material,
  Mass NonRes Wall Insulation-1.47,       !- Name
  MediumRough,                            !- Roughness
  0.0513034841760789,                     !- Thickness {m}
  0.049,                                  !- Conductivity {W/m-K}
  265,                                    !- Density {kg/m3}
  836.8,                                  !- Specific Heat {J/kg-K}
  0.9,                                    !- Thermal Absorptance
  0.7,                                    !- Solar Absorptance
  0.7;                                    !- Visible Absorptance

Material,
  Mass NonRes Wall Insulation-1.69,       !- Name
  MediumRough,                            !- Roughness
  0.0623673293364369,                     !- Thickness {m}
  0.049,                                  !- Conductivity {W/m-K}
  265,                                    !- Density {kg/m3}
  836.8,                                  !- Specific Heat {J/kg-K}
  0.9,                                    !- Thermal Absorptance
  0.7,                                    !- Solar Absorptance
  0.7;                                    !- Visible Absorptance

Material,
  Mass NonRes Wall Insulation-1.76,       !- Name
  MediumRough,                            !- Roughness
  0.0656864828845443,                     !- Thickness {m}
  0.049,                                  !- Conductivity {W/m-K}
  265,                                    !- Density {kg/m3}
  836.8,                                  !- Specific Heat {J/kg-K}
  0.9,                                    !- Thermal Absorptance
  0.7,                                    !- Solar Absorptance
  0.7;                                    !- Visible Absorptance

Material,
  Mass NonRes Wall Insulation-1.96,       !- Name
  MediumRough,                            !- Roughness
  0.075275148690188,                      !- Thickness {m}
  0.049,                                  !- Conductivity {W/m-K}
  265,                                    !- Density {kg/m3}
  836.8,                                  !- Specific Heat {J/kg-K}
  0.9,                                    !- Thermal Absorptance
  0.7,                                    !- Solar Absorptance
  0.7;                                    !- Visible Absorptance

Material,
  Mass NonRes Wall Insulation-2.20,       !- Name
  MediumRough,                            !- Roughness
  0.0872609809472425,                     !- Thickness {m}
  0.049,                                  !- Conductivity {W/m-K}
  265,                                    !- Density {kg/m3}
  836.8,                                  !- Specific Heat {J/kg-K}
  0.9,                                    !- Thermal Absorptance
  0.7,                                    !- Solar Absorptance
  0.7;                                    !- Visible Absorptance

Material,
  Mass NonRes Wall Insulation-2.23,       !- Name
  MediumRough,                            !- Roughness
  0.0886264555081727,                     !- Thickness {m}
  0.049,                                  !- Conductivity {W/m-K}
  265,                                    !- Density {kg/m3}
  836.8,                                  !- Specific Heat {J/kg-K}
  0.9,                                    !- Thermal Absorptance
  0.7,                                    !- Solar Absorptance
  0.7;                                    !- Visible Absorptance

Material,
  Mass NonRes Wall Insulation-2.48,       !- Name
  MediumRough,                            !- Roughness
  0.100934958592615,                      !- Thickness {m}
  0.049,                                  !- Conductivity {W/m-K}
  265,                                    !- Density {kg/m3}
  836.8,                                  !- Specific Heat {J/kg-K}
  0.9,                                    !- Thermal Absorptance
  0.7,                                    !- Solar Absorptance
  0.7;                                    !- Visible Absorptance

Material,
  Mass NonRes Wall Insulation-2.89,       !- Name
  MediumRough,                            !- Roughness
  0.120860609077674,                      !- Thickness {m}
  0.049,                                  !- Conductivity {W/m-K}
  265,                                    !- Density {kg/m3}
  836.8,                                  !- Specific Heat {J/kg-K}
  0.9,                                    !- Thermal Absorptance
  0.7,                                    !- Solar Absorptance
  0.7;                                    !- Visible Absorptance

Material,
  Mass NonRes Wall Insulation-3.75,       !- Name
  MediumRough,                            !- Roughness
  0.163001240103523,                      !- Thickness {m}
  0.049,                                  !- Conductivity {W/m-K}
  265,                                    !- Density {kg/m3}
  836.8,                                  !- Specific Heat {J/kg-K}
  0.9,                                    !- Thermal Absorptance
  0.7,                                    !- Solar Absorptance
  0.7;                                    !- Visible Absorptance

Material,
  MAT-CC05 4 HW CONCRETE,                 !- Name
  Rough,                                  !- Roughness
  0.1016,                                 !- Thickness {m}
  1.311,                                  !- Conductivity {W/m-K}
  2240,                                   !- Density {kg/m3}
  836.8,                                  !- Specific Heat {J/kg-K}
  0.9,                                    !- Thermal Absorptance
  0.7,                                    !- Solar Absorptance
  0.7;                                    !- Visible Absorptance

Material,
  MAT-CC05 8 HW CONCRETE,                 !- Name
  Rough,                                  !- Roughness
  0.2032,                                 !- Thickness {m}
  1.311,                                  !- Conductivity {W/m-K}
  2240,                                   !- Density {kg/m3}
  836.8,                                  !- Specific Heat {J/kg-K}
  0.9,                                    !- Thermal Absorptance
  0.7,                                    !- Solar Absorptance
  0.7;                                    !- Visible Absorptance

Material,
  Metal Building Semi-Cond Wall Insulation-0.54, !- Name
  MediumRough,                            !- Roughness
  0.0153459874049154,                     !- Thickness {m}
  0.049,                                  !- Conductivity {W/m-K}
  265,                                    !- Density {kg/m3}
  836.8,                                  !- Specific Heat {J/kg-K}
  0.9,                                    !- Thermal Absorptance
  0.7,                                    !- Solar Absorptance
  0.7;                                    !- Visible Absorptance

Material,
  Metal Building Semi-Cond Wall Insulation-0.57, !- Name
  MediumRough,                            !- Roughness
  0.0169093568297486,                     !- Thickness {m}
  0.049,                                  !- Conductivity {W/m-K}
  265,                                    !- Density {kg/m3}
  836.8,                                  !- Specific Heat {J/kg-K}
  0.9,                                    !- Thermal Absorptance
  0.7,                                    !- Solar Absorptance
  0.7;                                    !- Visible Absorptance

Material,
  Metal Building Semi-Cond Wall Insulation-0.59, !- Name
  MediumRough,                            !- Roughness
  0.0177431538563263,                     !- Thickness {m}
  0.049,                                  !- Conductivity {W/m-K}
  265,                                    !- Density {kg/m3}
  836.8,                                  !- Specific Heat {J/kg-K}
  0.9,                                    !- Thermal Absorptance
  0.7,                                    !- Solar Absorptance
  0.7;                                    !- Visible Absorptance

Material,
  Metal Building Semi-Cond Wall Insulation-0.61, !- Name
  MediumRough,                            !- Roughness
  0.0186148507477484,                     !- Thickness {m}
  0.049,                                  !- Conductivity {W/m-K}
  265,                                    !- Density {kg/m3}
  836.8,                                  !- Specific Heat {J/kg-K}
  0.9,                                    !- Thermal Absorptance
  0.7,                                    !- Solar Absorptance
  0.7;                                    !- Visible Absorptance

Material,
  Metal Building Semi-Cond Wall Insulation-0.77, !- Name
  MediumRough,                            !- Roughness
  0.0262895733787478,                     !- Thickness {m}
  0.049,                                  !- Conductivity {W/m-K}
  265,                                    !- Density {kg/m3}
  836.8,                                  !- Specific Heat {J/kg-K}
  0.9,                                    !- Thermal Absorptance
  0.7,                                    !- Solar Absorptance
  0.7;                                    !- Visible Absorptance

Material,
  Metal Building Semi-Cond Wall Insulation-0.80, !- Name
  MediumRough,                            !- Roughness
  0.0278705087521746,                     !- Thickness {m}
  0.049,                                  !- Conductivity {W/m-K}
  265,                                    !- Density {kg/m3}
  836.8,                                  !- Specific Heat {J/kg-K}
  0.9,                                    !- Thermal Absorptance
  0.7,                                    !- Solar Absorptance
  0.7;                                    !- Visible Absorptance

Material,
  Metal Building Semi-Cond Wall Insulation-0.81, !- Name
  MediumRough,                            !- Roughness
  0.0287016290627761,                     !- Thickness {m}
  0.049,                                  !- Conductivity {W/m-K}
  265,                                    !- Density {kg/m3}
  836.8,                                  !- Specific Heat {J/kg-K}
  0.9,                                    !- Thermal Absorptance
  0.7,                                    !- Solar Absorptance
  0.7;                                    !- Visible Absorptance

Material,
  Metal Building Semi-Cond Wall Insulation-0.90, !- Name
  MediumRough,                            !- Roughness
  0.0329897280566043,                     !- Thickness {m}
  0.049,                                  !- Conductivity {W/m-K}
  265,                                    !- Density {kg/m3}
  836.8,                                  !- Specific Heat {J/kg-K}
  0.9,                                    !- Thermal Absorptance
  0.7,                                    !- Solar Absorptance
  0.7;                                    !- Visible Absorptance

Material,
  Metal Building Semi-Cond Wall Insulation-0.91, !- Name
  MediumRough,                            !- Roughness
  0.0333247357904971,                     !- Thickness {m}
  0.049,                                  !- Conductivity {W/m-K}
  265,                                    !- Density {kg/m3}
  836.8,                                  !- Specific Heat {J/kg-K}
  0.9,                                    !- Thermal Absorptance
  0.7,                                    !- Solar Absorptance
  0.7;                                    !- Visible Absorptance

Material,
  Metal Building Semi-Cond Wall Insulation-0.94, !- Name
  MediumRough,                            !- Roughness
  0.0347077164355419,                     !- Thickness {m}
  0.049,                                  !- Conductivity {W/m-K}
  265,                                    !- Density {kg/m3}
  836.8,                                  !- Specific Heat {J/kg-K}
  0.9,                                    !- Thermal Absorptance
  0.7,                                    !- Solar Absorptance
  0.7;                                    !- Visible Absorptance

Material,
  Metal Building Semi-Cond Wall Insulation-0.98, !- Name
  MediumRough,                            !- Roughness
  0.0369204854676135,                     !- Thickness {m}
  0.049,                                  !- Conductivity {W/m-K}
  265,                                    !- Density {kg/m3}
  836.8,                                  !- Specific Heat {J/kg-K}
  0.9,                                    !- Thermal Absorptance
  0.7,                                    !- Solar Absorptance
  0.7;                                    !- Visible Absorptance

Material,
  Metal Building Semi-Cond Wall Insulation-1.02, !- Name
  MediumRough,                            !- Roughness
  0.0389043473584363,                     !- Thickness {m}
  0.049,                                  !- Conductivity {W/m-K}
  265,                                    !- Density {kg/m3}
  836.8,                                  !- Specific Heat {J/kg-K}
  0.9,                                    !- Thermal Absorptance
  0.7,                                    !- Solar Absorptance
  0.7;                                    !- Visible Absorptance

Material,
  Metal Building Semi-Cond Wall Insulation-1.10, !- Name
  MediumRough,                            !- Roughness
  0.042842896700511,                      !- Thickness {m}
  0.049,                                  !- Conductivity {W/m-K}
  265,                                    !- Density {kg/m3}
  836.8,                                  !- Specific Heat {J/kg-K}
  0.9,                                    !- Thermal Absorptance
  0.7,                                    !- Solar Absorptance
  0.7;                                    !- Visible Absorptance

Material,
  Metal Building Semi-Cond Wall Insulation-1.12, !- Name
  MediumRough,                            !- Roughness
  0.0437899773880746,                     !- Thickness {m}
  0.049,                                  !- Conductivity {W/m-K}
  265,                                    !- Density {kg/m3}
  836.8,                                  !- Specific Heat {J/kg-K}
  0.9,                                    !- Thermal Absorptance
  0.7,                                    !- Solar Absorptance
  0.7;                                    !- Visible Absorptance

Material,
  Metal Building Semi-Cond Wall Insulation-1.16, !- Name
  MediumRough,                            !- Roughness
  0.0457715615958999,                     !- Thickness {m}
  0.049,                                  !- Conductivity {W/m-K}
  265,                                    !- Density {kg/m3}
  836.8,                                  !- Specific Heat {J/kg-K}
  0.9,                                    !- Thermal Absorptance
  0.7,                                    !- Solar Absorptance
  0.7;                                    !- Visible Absorptance

Material,
  Metal Building Semi-Cond Wall Insulation-1.22, !- Name
  MediumRough,                            !- Roughness
  0.0484268844343858,                     !- Thickness {m}
  0.049,                                  !- Conductivity {W/m-K}
  265,                                    !- Density {kg/m3}
  836.8,                                  !- Specific Heat {J/kg-K}
  0.9,                                    !- Thermal Absorptance
  0.7,                                    !- Solar Absorptance
  0.7;                                    !- Visible Absorptance

Material,
  Metal Building Semi-Cond Wall Insulation-1.24, !- Name
  MediumRough,                            !- Roughness
  0.0495494599433393,                     !- Thickness {m}
  0.049,                                  !- Conductivity {W/m-K}
  265,                                    !- Density {kg/m3}
  836.8,                                  !- Specific Heat {J/kg-K}
  0.9,                                    !- Thermal Absorptance
  0.7,                                    !- Solar Absorptance
  0.7;                                    !- Visible Absorptance

Material,
  Metal Building Semi-Cond Wall Insulation-1.37, !- Name
  MediumRough,                            !- Roughness
  0.0557583952804709,                     !- Thickness {m}
  0.049,                                  !- Conductivity {W/m-K}
  265,                                    !- Density {kg/m3}
  836.8,                                  !- Specific Heat {J/kg-K}
  0.9,                                    !- Thermal Absorptance
  0.7,                                    !- Solar Absorptance
  0.7;                                    !- Visible Absorptance

Material,
  Metal Building Semi-Cond Wall Insulation-1.57, !- Name
  MediumRough,                            !- Roughness
  0.0656864828845443,                     !- Thickness {m}
  0.049,                                  !- Conductivity {W/m-K}
  265,                                    !- Density {kg/m3}
  836.8,                                  !- Specific Heat {J/kg-K}
  0.9,                                    !- Thermal Absorptance
  0.7,                                    !- Solar Absorptance
  0.7;                                    !- Visible Absorptance

Material,
  Metal Building Semi-Cond Wall Insulation-1.72, !- Name
  MediumRough,                            !- Roughness
  0.0731906561237437,                     !- Thickness {m}
  0.049,                                  !- Conductivity {W/m-K}
  265,                                    !- Density {kg/m3}
  836.8,                                  !- Specific Heat {J/kg-K}
  0.9,                                    !- Thermal Absorptance
  0.7,                                    !- Solar Absorptance
  0.7;                                    !- Visible Absorptance

Material,
  Metal Building Semi-Cond Wall Insulation-1.79, !- Name
  MediumRough,                            !- Roughness
  0.0763525268705974,                     !- Thickness {m}
  0.049,                                  !- Conductivity {W/m-K}
  265,                                    !- Density {kg/m3}
  836.8,                                  !- Specific Heat {J/kg-K}
  0.9,                                    !- Thermal Absorptance
  0.7,                                    !- Solar Absorptance
  0.7;                                    !- Visible Absorptance

Material,
  Metal Building Semi-Cond Wall Insulation-1.96, !- Name
  MediumRough,                            !- Roughness
  0.084629944598133,                      !- Thickness {m}
  0.049,                                  !- Conductivity {W/m-K}
  265,                                    !- Density {kg/m3}
  836.8,                                  !- Specific Heat {J/kg-K}
  0.9,                                    !- Thermal Absorptance
  0.7,                                    !- Solar Absorptance
  0.7;                                    !- Visible Absorptance

Material,
  Metal Building Semi-Cond Wall Insulation-2.25, !- Name
  MediumRough,                            !- Roughness
  0.099246813204297,                      !- Thickness {m}
  0.049,                                  !- Conductivity {W/m-K}
  265,                                    !- Density {kg/m3}
  836.8,                                  !- Specific Heat {J/kg-K}
  0.9,                                    !- Thermal Absorptance
  0.7,                                    !- Solar Absorptance
  0.7;                                    !- Visible Absorptance

Material,
  Metal Building Semi-Cond Wall Insulation-2.52, !- Name
  MediumRough,                            !- Roughness
  0.112154632558048,                      !- Thickness {m}
  0.049,                                  !- Conductivity {W/m-K}
  265,                                    !- Density {kg/m3}
  836.8,                                  !- Specific Heat {J/kg-K}
  0.9,                                    !- Thermal Absorptance
  0.7,                                    !- Solar Absorptance
  0.7;                                    !- Visible Absorptance

Material,
  Metal Building Semi-Cond Wall Insulation-2.85, !- Name
  MediumRough,                            !- Roughness
  0.128178132445463,                      !- Thickness {m}
  0.049,                                  !- Conductivity {W/m-K}
  265,                                    !- Density {kg/m3}
  836.8,                                  !- Specific Heat {J/kg-K}
  0.9,                                    !- Thermal Absorptance
  0.7,                                    !- Solar Absorptance
  0.7;                                    !- Visible Absorptance

Material,
  Metal Building Semi-Cond Wall Insulation-3.72, !- Name
  MediumRough,                            !- Roughness
  0.171161806746624,                      !- Thickness {m}
  0.049,                                  !- Conductivity {W/m-K}
  265,                                    !- Density {kg/m3}
  836.8,                                  !- Specific Heat {J/kg-K}
  0.9,                                    !- Thermal Absorptance
  0.7,                                    !- Solar Absorptance
  0.7;                                    !- Visible Absorptance

Material,
  Metal Decking,                          !- Name
  MediumSmooth,                           !- Roughness
  0.0015,                                 !- Thickness {m}
  45.006,                                 !- Conductivity {W/m-K}
  7680,                                   !- Density {kg/m3}
  418.4,                                  !- Specific Heat {J/kg-K}
  0.9,                                    !- Thermal Absorptance
  0.7,                                    !- Solar Absorptance
  0.3;                                    !- Visible Absorptance

Material,
  Metal Roofing,                          !- Name
  MediumSmooth,                           !- Roughness
  0.0015,                                 !- Thickness {m}
  45.006,                                 !- Conductivity {W/m-K}
  7680,                                   !- Density {kg/m3}
  418.4,                                  !- Specific Heat {J/kg-K}
  0.9,                                    !- Thermal Absorptance
  0.3,                                    !- Solar Absorptance
  0.3;                                    !- Visible Absorptance

Material,
  Metal Semi-Cond Roof Insulation-1.05,   !- Name
  MediumRough,                            !- Roughness
  0.0422673301906314,                     !- Thickness {m}
  0.049,                                  !- Conductivity {W/m-K}
  265,                                    !- Density {kg/m3}
  836.8,                                  !- Specific Heat {J/kg-K}
  0.9,                                    !- Thermal Absorptance
  0.7,                                    !- Solar Absorptance
  0.7;                                    !- Visible Absorptance

Material,
  Metal Semi-Cond Roof Insulation-1.76,   !- Name
  MediumRough,                            !- Roughness
  0.0768898779798716,                     !- Thickness {m}
  0.049,                                  !- Conductivity {W/m-K}
  265,                                    !- Density {kg/m3}
  836.8,                                  !- Specific Heat {J/kg-K}
  0.9,                                    !- Thermal Absorptance
  0.7,                                    !- Solar Absorptance
  0.7;                                    !- Visible Absorptance

Material,
  Metal Semi-Cond Roof Insulation-1.81,   !- Name
  MediumRough,                            !- Roughness
  0.0795588880494837,                     !- Thickness {m}
  0.049,                                  !- Conductivity {W/m-K}
  265,                                    !- Density {kg/m3}
  836.8,                                  !- Specific Heat {J/kg-K}
  0.9,                                    !- Thermal Absorptance
  0.7,                                    !- Solar Absorptance
  0.7;                                    !- Visible Absorptance

Material,
  Metal Semi-Cond Roof Insulation-1.87,   !- Name
  MediumRough,                            !- Roughness
  0.0822341258092582,                     !- Thickness {m}
  0.049,                                  !- Conductivity {W/m-K}
  265,                                    !- Density {kg/m3}
  836.8,                                  !- Specific Heat {J/kg-K}
  0.9,                                    !- Thermal Absorptance
  0.7,                                    !- Solar Absorptance
  0.7;                                    !- Visible Absorptance

Material,
  Metal Semi-Cond Roof Insulation-2.00,   !- Name
  MediumRough,                            !- Roughness
  0.0886577860140706,                     !- Thickness {m}
  0.049,                                  !- Conductivity {W/m-K}
  265,                                    !- Density {kg/m3}
  836.8,                                  !- Specific Heat {J/kg-K}
  0.9,                                    !- Thermal Absorptance
  0.7,                                    !- Solar Absorptance
  0.7;                                    !- Visible Absorptance

Material,
  Metal Semi-Cond Roof Insulation-2.38,   !- Name
  MediumRough,                            !- Roughness
  0.107210794176096,                      !- Thickness {m}
  0.049,                                  !- Conductivity {W/m-K}
  265,                                    !- Density {kg/m3}
  836.8,                                  !- Specific Heat {J/kg-K}
  0.9,                                    !- Thermal Absorptance
  0.7,                                    !- Solar Absorptance
  0.7;                                    !- Visible Absorptance

Material,
  Metal Semi-Cond Roof Insulation-2.44,   !- Name
  MediumRough,                            !- Roughness
  0.110450208299624,                      !- Thickness {m}
  0.049,                                  !- Conductivity {W/m-K}
  265,                                    !- Density {kg/m3}
  836.8,                                  !- Specific Heat {J/kg-K}
  0.9,                                    !- Thermal Absorptance
  0.7,                                    !- Solar Absorptance
  0.7;                                    !- Visible Absorptance

Material,
  Metal Semi-Cond Roof Insulation-2.50,   !- Name
  MediumRough,                            !- Roughness
  0.113125446059399,                      !- Thickness {m}
  0.049,                                  !- Conductivity {W/m-K}
  265,                                    !- Density {kg/m3}
  836.8,                                  !- Specific Heat {J/kg-K}
  0.9,                                    !- Thermal Absorptance
  0.7,                                    !- Solar Absorptance
  0.7;                                    !- Visible Absorptance

Material,
  Metal Semi-Cond Roof Insulation-2.67,   !- Name
  MediumRough,                            !- Roughness
  0.121346419442401,                      !- Thickness {m}
  0.049,                                  !- Conductivity {W/m-K}
  265,                                    !- Density {kg/m3}
  836.8,                                  !- Specific Heat {J/kg-K}
  0.9,                                    !- Thermal Absorptance
  0.7,                                    !- Solar Absorptance
  0.7;                                    !- Visible Absorptance

Material,
  Metal Semi-Cond Roof Insulation-2.75,   !- Name
  MediumRough,                            !- Roughness
  0.125432498620942,                      !- Thickness {m}
  0.049,                                  !- Conductivity {W/m-K}
  265,                                    !- Density {kg/m3}
  836.8,                                  !- Specific Heat {J/kg-K}
  0.9,                                    !- Thermal Absorptance
  0.7,                                    !- Solar Absorptance
  0.7;                                    !- Visible Absorptance

Material,
  Metal Semi-Cond Roof Insulation-2.99,   !- Name
  MediumRough,                            !- Roughness
  0.136859669204999,                      !- Thickness {m}
  0.049,                                  !- Conductivity {W/m-K}
  265,                                    !- Density {kg/m3}
  836.8,                                  !- Specific Heat {J/kg-K}
  0.9,                                    !- Thermal Absorptance
  0.7,                                    !- Solar Absorptance
  0.7;                                    !- Visible Absorptance

Material,
  Metal Semi-Cond Roof Insulation-3.03,   !- Name
  MediumRough,                            !- Roughness
  0.13938152754079,                       !- Thickness {m}
  0.049,                                  !- Conductivity {W/m-K}
  265,                                    !- Density {kg/m3}
  836.8,                                  !- Specific Heat {J/kg-K}
  0.9,                                    !- Thermal Absorptance
  0.7,                                    !- Solar Absorptance
  0.7;                                    !- Visible Absorptance

Material,
  Metal Semi-Cond Roof Insulation-3.38,   !- Name
  MediumRough,                            !- Roughness
  0.156093523962047,                      !- Thickness {m}
  0.049,                                  !- Conductivity {W/m-K}
  265,                                    !- Density {kg/m3}
  836.8,                                  !- Specific Heat {J/kg-K}
  0.9,                                    !- Thermal Absorptance
  0.7,                                    !- Solar Absorptance
  0.7;                                    !- Visible Absorptance

Material,
  Metal Semi-Cond Roof Insulation-3.65,   !- Name
  MediumRough,                            !- Roughness
  0.169385475021083,                      !- Thickness {m}
  0.049,                                  !- Conductivity {W/m-K}
  265,                                    !- Density {kg/m3}
  836.8,                                  !- Specific Heat {J/kg-K}
  0.9,                                    !- Thermal Absorptance
  0.7,                                    !- Solar Absorptance
  0.7;                                    !- Visible Absorptance

Material,
  Metal Semi-Cond Roof Insulation-3.66,   !- Name
  MediumRough,                            !- Roughness
  0.170379369584897,                      !- Thickness {m}
  0.049,                                  !- Conductivity {W/m-K}
  265,                                    !- Density {kg/m3}
  836.8,                                  !- Specific Heat {J/kg-K}
  0.9,                                    !- Thermal Absorptance
  0.7,                                    !- Solar Absorptance
  0.7;                                    !- Visible Absorptance

Material,
  Metal Semi-Cond Roof Insulation-3.83,   !- Name
  MediumRough,                            !- Roughness
  0.178196216709063,                      !- Thickness {m}
  0.049,                                  !- Conductivity {W/m-K}
  265,                                    !- Density {kg/m3}
  836.8,                                  !- Specific Heat {J/kg-K}
  0.9,                                    !- Thermal Absorptance
  0.7,                                    !- Solar Absorptance
  0.7;                                    !- Visible Absorptance

Material,
  Metal Semi-Cond Roof Insulation-3.97,   !- Name
  MediumRough,                            !- Roughness
  0.185040439601726,                      !- Thickness {m}
  0.049,                                  !- Conductivity {W/m-K}
  265,                                    !- Density {kg/m3}
  836.8,                                  !- Specific Heat {J/kg-K}
  0.9,                                    !- Thermal Absorptance
  0.7,                                    !- Solar Absorptance
  0.7;                                    !- Visible Absorptance

Material,
  Metal Semi-Cond Roof Insulation-4.41,   !- Name
  MediumRough,                            !- Roughness
  0.20633686635606,                       !- Thickness {m}
  0.049,                                  !- Conductivity {W/m-K}
  265,                                    !- Density {kg/m3}
  836.8,                                  !- Specific Heat {J/kg-K}
  0.9,                                    !- Thermal Absorptance
  0.7,                                    !- Solar Absorptance
  0.7;                                    !- Visible Absorptance

Material,
  Metal Semi-Cond Roof Insulation-5.75,   !- Name
  MediumRough,                            !- Roughness
  0.271647743652701,                      !- Thickness {m}
  0.049,                                  !- Conductivity {W/m-K}
  265,                                    !- Density {kg/m3}
  836.8,                                  !- Specific Heat {J/kg-K}
  0.9,                                    !- Thermal Absorptance
  0.7,                                    !- Solar Absorptance
  0.7;                                    !- Visible Absorptance

Material,
  Metal Siding,                           !- Name
  Smooth,                                 !- Roughness
  0.0015,                                 !- Thickness {m}
  44.96,                                  !- Conductivity {W/m-K}
  7688.86,                                !- Density {kg/m3}
  410,                                    !- Specific Heat {J/kg-K}
  0.9,                                    !- Thermal Absorptance
  0.2,                                    !- Solar Absorptance
  0.2;                                    !- Visible Absorptance

Material,
  Roof Insulation [18],                   !- Name
  MediumRough,                            !- Roughness
  0.1693,                                 !- Thickness {m}
  0.049,                                  !- Conductivity {W/m-K}
  265,                                    !- Density {kg/m3}
  836.8,                                  !- Specific Heat {J/kg-K}
  0.9,                                    !- Thermal Absorptance
  0.7,                                    !- Solar Absorptance
  0.7;                                    !- Visible Absorptance

Material,
  Roof Insulation [19],                   !- Name
  MediumRough,                            !- Roughness
  0.1868,                                 !- Thickness {m}
  0.049,                                  !- Conductivity {W/m-K}
  265,                                    !- Density {kg/m3}
  836.8,                                  !- Specific Heat {J/kg-K}
  0.9,                                    !- Thermal Absorptance
  0.7,                                    !- Solar Absorptance
  0.7;                                    !- Visible Absorptance

Material,
  Roof Insulation [21],                   !- Name
  MediumRough,                            !- Roughness
  0.2105,                                 !- Thickness {m}
  0.049,                                  !- Conductivity {W/m-K}
  265,                                    !- Density {kg/m3}
  836.8,                                  !- Specific Heat {J/kg-K}
  0.9,                                    !- Thermal Absorptance
  0.7,                                    !- Solar Absorptance
  0.7;                                    !- Visible Absorptance

Material,
  Roof Insulation [22],                   !- Name
  MediumRough,                            !- Roughness
  0.2358,                                 !- Thickness {m}
  0.049,                                  !- Conductivity {W/m-K}
  265,                                    !- Density {kg/m3}
  836.8,                                  !- Specific Heat {J/kg-K}
  0.9,                                    !- Thermal Absorptance
  0.7,                                    !- Solar Absorptance
  0.7;                                    !- Visible Absorptance

Material,
  Roof Insulation [24],                   !- Name
  MediumRough,                            !- Roughness
  0.2601,                                 !- Thickness {m}
  0.049,                                  !- Conductivity {W/m-K}
  265,                                    !- Density {kg/m3}
  836.8,                                  !- Specific Heat {J/kg-K}
  0.9,                                    !- Thermal Absorptance
  0.7,                                    !- Solar Absorptance
  0.7;                                    !- Visible Absorptance

Material,
  Roof Insulation [25],                   !- Name
  MediumRough,                            !- Roughness
  0.263,                                  !- Thickness {m}
  0.049,                                  !- Conductivity {W/m-K}
  265,                                    !- Density {kg/m3}
  836.8,                                  !- Specific Heat {J/kg-K}
  0.9,                                    !- Thermal Absorptance
  0.7,                                    !- Solar Absorptance
  0.7;                                    !- Visible Absorptance

Material,
  Roof Insulation [26],                   !- Name
  MediumRough,                            !- Roughness
  0.2941,                                 !- Thickness {m}
  0.049,                                  !- Conductivity {W/m-K}
  265,                                    !- Density {kg/m3}
  836.8,                                  !- Specific Heat {J/kg-K}
  0.9,                                    !- Thermal Absorptance
  0.7,                                    !- Solar Absorptance
  0.7;                                    !- Visible Absorptance

Material,
  Roof Insulation [27],                   !- Name
  MediumRough,                            !- Roughness
  0.297,                                  !- Thickness {m}
  0.049,                                  !- Conductivity {W/m-K}
  265,                                    !- Density {kg/m3}
  836.8,                                  !- Specific Heat {J/kg-K}
  0.9,                                    !- Thermal Absorptance
  0.7,                                    !- Solar Absorptance
  0.7;                                    !- Visible Absorptance

Material,
  Roof Membrane,                          !- Name
  VeryRough,                              !- Roughness
  0.0095,                                 !- Thickness {m}
  0.16,                                   !- Conductivity {W/m-K}
  1121.29,                                !- Density {kg/m3}
  1460,                                   !- Specific Heat {J/kg-K}
  0.9,                                    !- Thermal Absorptance
  0.7,                                    !- Solar Absorptance
  0.7;                                    !- Visible Absorptance

Material,
  Steel Frame NonRes Wall Insulation-0.73, !- Name
  MediumRough,                            !- Roughness
  0.0202782469753007,                     !- Thickness {m}
  0.049,                                  !- Conductivity {W/m-K}
  265,                                    !- Density {kg/m3}
  836.8,                                  !- Specific Heat {J/kg-K}
  0.9,                                    !- Thermal Absorptance
  0.7,                                    !- Solar Absorptance
  0.7;                                    !- Visible Absorptance

Material,
  Steel Frame NonRes Wall Insulation-0.77, !- Name
  MediumRough,                            !- Roughness
  0.0218416164001339,                     !- Thickness {m}
  0.049,                                  !- Conductivity {W/m-K}
  265,                                    !- Density {kg/m3}
  836.8,                                  !- Specific Heat {J/kg-K}
  0.9,                                    !- Thermal Absorptance
  0.7,                                    !- Solar Absorptance
  0.7;                                    !- Visible Absorptance

Material,
  Steel Frame NonRes Wall Insulation-0.79, !- Name
  MediumRough,                            !- Roughness
  0.0228466396018124,                     !- Thickness {m}
  0.049,                                  !- Conductivity {W/m-K}
  265,                                    !- Density {kg/m3}
  836.8,                                  !- Specific Heat {J/kg-K}
  0.9,                                    !- Thermal Absorptance
  0.7,                                    !- Solar Absorptance
  0.7;                                    !- Visible Absorptance

Material,
  Steel Frame NonRes Wall Insulation-0.80, !- Name
  MediumRough,                            !- Roughness
  0.0235471103181338,                     !- Thickness {m}
  0.049,                                  !- Conductivity {W/m-K}
  265,                                    !- Density {kg/m3}
  836.8,                                  !- Specific Heat {J/kg-K}
  0.9,                                    !- Thermal Absorptance
  0.7,                                    !- Solar Absorptance
  0.7;                                    !- Visible Absorptance

Material,
  Steel Frame NonRes Wall Insulation-0.96, !- Name
  MediumRough,                            !- Roughness
  0.0312218329491331,                     !- Thickness {m}
  0.049,                                  !- Conductivity {W/m-K}
  265,                                    !- Density {kg/m3}
  836.8,                                  !- Specific Heat {J/kg-K}
  0.9,                                    !- Thermal Absorptance
  0.7,                                    !- Solar Absorptance
  0.7;                                    !- Visible Absorptance

Material,
  Steel Frame NonRes Wall Insulation-0.99, !- Name
  MediumRough,                            !- Roughness
  0.03280276832256,                       !- Thickness {m}
  0.049,                                  !- Conductivity {W/m-K}
  265,                                    !- Density {kg/m3}
  836.8,                                  !- Specific Heat {J/kg-K}
  0.9,                                    !- Thermal Absorptance
  0.7,                                    !- Solar Absorptance
  0.7;                                    !- Visible Absorptance

Material,
  Steel Frame NonRes Wall Insulation-1.01, !- Name
  MediumRough,                            !- Roughness
  0.0336338886331615,                     !- Thickness {m}
  0.049,                                  !- Conductivity {W/m-K}
  265,                                    !- Density {kg/m3}
  836.8,                                  !- Specific Heat {J/kg-K}
  0.9,                                    !- Thermal Absorptance
  0.7,                                    !- Solar Absorptance
  0.7;                                    !- Visible Absorptance

Material,
  Steel Frame NonRes Wall Insulation-1.09, !- Name
  MediumRough,                            !- Roughness
  0.0379219876269897,                     !- Thickness {m}
  0.049,                                  !- Conductivity {W/m-K}
  265,                                    !- Density {kg/m3}
  836.8,                                  !- Specific Heat {J/kg-K}
  0.9,                                    !- Thermal Absorptance
  0.7,                                    !- Solar Absorptance
  0.7;                                    !- Visible Absorptance

Material,
  Steel Frame NonRes Wall Insulation-1.10, !- Name
  MediumRough,                            !- Roughness
  0.0382569953608825,                     !- Thickness {m}
  0.049,                                  !- Conductivity {W/m-K}
  265,                                    !- Density {kg/m3}
  836.8,                                  !- Specific Heat {J/kg-K}
  0.9,                                    !- Thermal Absorptance
  0.7,                                    !- Solar Absorptance
  0.7;                                    !- Visible Absorptance

Material,
  Steel Frame NonRes Wall Insulation-1.13, !- Name
  MediumRough,                            !- Roughness
  0.0396399760059273,                     !- Thickness {m}
  0.049,                                  !- Conductivity {W/m-K}
  265,                                    !- Density {kg/m3}
  836.8,                                  !- Specific Heat {J/kg-K}
  0.9,                                    !- Thermal Absorptance
  0.7,                                    !- Solar Absorptance
  0.7;                                    !- Visible Absorptance

Material,
  Steel Frame NonRes Wall Insulation-1.17, !- Name
  MediumRough,                            !- Roughness
  0.0418527450379989,                     !- Thickness {m}
  0.049,                                  !- Conductivity {W/m-K}
  265,                                    !- Density {kg/m3}
  836.8,                                  !- Specific Heat {J/kg-K}
  0.9,                                    !- Thermal Absorptance
  0.7,                                    !- Solar Absorptance
  0.7;                                    !- Visible Absorptance

Material,
  Steel Frame NonRes Wall Insulation-1.22, !- Name
  MediumRough,                            !- Roughness
  0.0438366069288217,                     !- Thickness {m}
  0.049,                                  !- Conductivity {W/m-K}
  265,                                    !- Density {kg/m3}
  836.8,                                  !- Specific Heat {J/kg-K}
  0.9,                                    !- Thermal Absorptance
  0.7,                                    !- Solar Absorptance
  0.7;                                    !- Visible Absorptance

Material,
  Steel Frame NonRes Wall Insulation-1.30, !- Name
  MediumRough,                            !- Roughness
  0.0477751562708964,                     !- Thickness {m}
  0.049,                                  !- Conductivity {W/m-K}
  265,                                    !- Density {kg/m3}
  836.8,                                  !- Specific Heat {J/kg-K}
  0.9,                                    !- Thermal Absorptance
  0.7,                                    !- Solar Absorptance
  0.7;                                    !- Visible Absorptance

Material,
  Steel Frame NonRes Wall Insulation-1.36, !- Name
  MediumRough,                            !- Roughness
  0.0507038211662853,                     !- Thickness {m}
  0.049,                                  !- Conductivity {W/m-K}
  265,                                    !- Density {kg/m3}
  836.8,                                  !- Specific Heat {J/kg-K}
  0.9,                                    !- Thermal Absorptance
  0.7,                                    !- Solar Absorptance
  0.7;                                    !- Visible Absorptance

Material,
  Steel Frame NonRes Wall Insulation-1.41, !- Name
  MediumRough,                            !- Roughness
  0.0533591440047712,                     !- Thickness {m}
  0.049,                                  !- Conductivity {W/m-K}
  265,                                    !- Density {kg/m3}
  836.8,                                  !- Specific Heat {J/kg-K}
  0.9,                                    !- Thermal Absorptance
  0.7,                                    !- Solar Absorptance
  0.7;                                    !- Visible Absorptance

Material,
  Steel Frame NonRes Wall Insulation-1.42, !- Name
  MediumRough,                            !- Roughness
  0.0539159052,                           !- Thickness {m}
  0.049,                                  !- Conductivity {W/m-K}
  265,                                    !- Density {kg/m3}
  836.8,                                  !- Specific Heat {J/kg-K}
  0.9,                                    !- Thermal Absorptance
  0.7,                                    !- Solar Absorptance
  0.7;                                    !- Visible Absorptance

Material,
  Steel Frame NonRes Wall Insulation-1.76, !- Name
  MediumRough,                            !- Roughness
  0.0706187424549297,                     !- Thickness {m}
  0.049,                                  !- Conductivity {W/m-K}
  265,                                    !- Density {kg/m3}
  836.8,                                  !- Specific Heat {J/kg-K}
  0.9,                                    !- Thermal Absorptance
  0.7,                                    !- Solar Absorptance
  0.7;                                    !- Visible Absorptance

Material,
  Steel Frame NonRes Wall Insulation-1.92, !- Name
  MediumRough,                            !- Roughness
  0.0781229156941291,                     !- Thickness {m}
  0.049,                                  !- Conductivity {W/m-K}
  265,                                    !- Density {kg/m3}
  836.8,                                  !- Specific Heat {J/kg-K}
  0.9,                                    !- Thermal Absorptance
  0.7,                                    !- Solar Absorptance
  0.7;                                    !- Visible Absorptance

Material,
  Steel Frame NonRes Wall Insulation-1.98, !- Name
  MediumRough,                            !- Roughness
  0.0812847864409827,                     !- Thickness {m}
  0.049,                                  !- Conductivity {W/m-K}
  265,                                    !- Density {kg/m3}
  836.8,                                  !- Specific Heat {J/kg-K}
  0.9,                                    !- Thermal Absorptance
  0.7,                                    !- Solar Absorptance
  0.7;                                    !- Visible Absorptance

Material,
  Steel Frame NonRes Wall Insulation-2.10, !- Name
  MediumRough,                            !- Roughness
  0.0870564552646045,                     !- Thickness {m}
  0.049,                                  !- Conductivity {W/m-K}
  265,                                    !- Density {kg/m3}
  836.8,                                  !- Specific Heat {J/kg-K}
  0.9,                                    !- Thermal Absorptance
  0.7,                                    !- Solar Absorptance
  0.7;                                    !- Visible Absorptance

Material,
  Steel Frame NonRes Wall Insulation-2.15, !- Name
  MediumRough,                            !- Roughness
  0.0895622041685183,                     !- Thickness {m}
  0.049,                                  !- Conductivity {W/m-K}
  265,                                    !- Density {kg/m3}
  836.8,                                  !- Specific Heat {J/kg-K}
  0.9,                                    !- Thermal Absorptance
  0.7,                                    !- Solar Absorptance
  0.7;                                    !- Visible Absorptance

Material,
  Steel Frame NonRes Wall Insulation-2.44, !- Name
  MediumRough,                            !- Roughness
  0.104179072774682,                      !- Thickness {m}
  0.049,                                  !- Conductivity {W/m-K}
  265,                                    !- Density {kg/m3}
  836.8,                                  !- Specific Heat {J/kg-K}
  0.9,                                    !- Thermal Absorptance
  0.7,                                    !- Solar Absorptance
  0.7;                                    !- Visible Absorptance

Material,
  Steel Frame NonRes Wall Insulation-2.71, !- Name
  MediumRough,                            !- Roughness
  0.117086892128433,                      !- Thickness {m}
  0.049,                                  !- Conductivity {W/m-K}
  265,                                    !- Density {kg/m3}
  836.8,                                  !- Specific Heat {J/kg-K}
  0.9,                                    !- Thermal Absorptance
  0.7,                                    !- Solar Absorptance
  0.7;                                    !- Visible Absorptance

Material,
  Steel Frame NonRes Wall Insulation-2.75, !- Name
  MediumRough,                            !- Roughness
  0.119161363096001,                      !- Thickness {m}
  0.049,                                  !- Conductivity {W/m-K}
  265,                                    !- Density {kg/m3}
  836.8,                                  !- Specific Heat {J/kg-K}
  0.9,                                    !- Thermal Absorptance
  0.7,                                    !- Solar Absorptance
  0.7;                                    !- Visible Absorptance

Material,
  Steel Frame NonRes Wall Insulation-3.04, !- Name
  MediumRough,                            !- Roughness
  0.133110392015848,                      !- Thickness {m}
  0.049,                                  !- Conductivity {W/m-K}
  265,                                    !- Density {kg/m3}
  836.8,                                  !- Specific Heat {J/kg-K}
  0.9,                                    !- Thermal Absorptance
  0.7,                                    !- Solar Absorptance
  0.7;                                    !- Visible Absorptance

Material,
  Steel Frame NonRes Wall Insulation-3.21, !- Name
  MediumRough,                            !- Roughness
  0.14122619066012,                       !- Thickness {m}
  0.049,                                  !- Conductivity {W/m-K}
  265,                                    !- Density {kg/m3}
  836.8,                                  !- Specific Heat {J/kg-K}
  0.9,                                    !- Thermal Absorptance
  0.7,                                    !- Solar Absorptance
  0.7;                                    !- Visible Absorptance

Material,
  Steel Frame NonRes Wall Insulation-3.91, !- Name
  MediumRough,                            !- Roughness
  0.17609406631701,                       !- Thickness {m}
  0.049,                                  !- Conductivity {W/m-K}
  265,                                    !- Density {kg/m3}
  836.8,                                  !- Specific Heat {J/kg-K}
  0.9,                                    !- Thermal Absorptance
  0.7,                                    !- Solar Absorptance
  0.7;                                    !- Visible Absorptance

Material,
  Wall Insulation [31],                   !- Name
  MediumRough,                            !- Roughness
  0.0337,                                 !- Thickness {m}
  0.0432,                                 !- Conductivity {W/m-K}
  91,                                     !- Density {kg/m3}
  837,                                    !- Specific Heat {J/kg-K}
  0.9,                                    !- Thermal Absorptance
  0.5,                                    !- Solar Absorptance
  0.5;                                    !- Visible Absorptance

Material,
  Wall Insulation [32],                   !- Name
  MediumRough,                            !- Roughness
  0.0897,                                 !- Thickness {m}
  0.045,                                  !- Conductivity {W/m-K}
  265,                                    !- Density {kg/m3}
  836.8,                                  !- Specific Heat {J/kg-K}
  0.9,                                    !- Thermal Absorptance
  0.7,                                    !- Solar Absorptance
  0.7;                                    !- Visible Absorptance

Material,
  Wall Insulation [33],                   !- Name
  MediumRough,                            !- Roughness
  0.0781,                                 !- Thickness {m}
  0.045,                                  !- Conductivity {W/m-K}
  265,                                    !- Density {kg/m3}
  836.8,                                  !- Specific Heat {J/kg-K}
  0.9,                                    !- Thermal Absorptance
  0.7,                                    !- Solar Absorptance
  0.7;                                    !- Visible Absorptance

Material,
  Wall Insulation [34],                   !- Name
  MediumRough,                            !- Roughness
  0.1104,                                 !- Thickness {m}
  0.045,                                  !- Conductivity {W/m-K}
  265,                                    !- Density {kg/m3}
  836.8,                                  !- Specific Heat {J/kg-K}
  0.9,                                    !- Thermal Absorptance
  0.7,                                    !- Solar Absorptance
  0.7;                                    !- Visible Absorptance

Material,
  Wall Insulation [35],                   !- Name
  MediumRough,                            !- Roughness
  0.0452,                                 !- Thickness {m}
  0.0432,                                 !- Conductivity {W/m-K}
  91,                                     !- Density {kg/m3}
  837,                                    !- Specific Heat {J/kg-K}
  0.9,                                    !- Thermal Absorptance
  0.5,                                    !- Solar Absorptance
  0.5;                                    !- Visible Absorptance

Material,
  Wall Insulation [36],                   !- Name
  MediumRough,                            !- Roughness
  0.0566,                                 !- Thickness {m}
  0.0432,                                 !- Conductivity {W/m-K}
  91,                                     !- Density {kg/m3}
  837,                                    !- Specific Heat {J/kg-K}
  0.9,                                    !- Thermal Absorptance
  0.5,                                    !- Solar Absorptance
  0.5;                                    !- Visible Absorptance

Material,
  Wall Insulation [37],                   !- Name
  MediumRough,                            !- Roughness
  0.0681,                                 !- Thickness {m}
  0.0432,                                 !- Conductivity {W/m-K}
  91,                                     !- Density {kg/m3}
  837,                                    !- Specific Heat {J/kg-K}
  0.9,                                    !- Thermal Absorptance
  0.5,                                    !- Solar Absorptance
  0.5;                                    !- Visible Absorptance

Material,
  Wall Insulation [38],                   !- Name
  MediumRough,                            !- Roughness
  0.1396,                                 !- Thickness {m}
  0.045,                                  !- Conductivity {W/m-K}
  265,                                    !- Density {kg/m3}
  836.8,                                  !- Specific Heat {J/kg-K}
  0.9,                                    !- Thermal Absorptance
  0.7,                                    !- Solar Absorptance
  0.7;                                    !- Visible Absorptance

Material,
  Wall Insulation [39],                   !- Name
  MediumRough,                            !- Roughness
  0.1184,                                 !- Thickness {m}
  0.045,                                  !- Conductivity {W/m-K}
  265,                                    !- Density {kg/m3}
  836.8,                                  !- Specific Heat {J/kg-K}
  0.9,                                    !- Thermal Absorptance
  0.7,                                    !- Solar Absorptance
  0.7;                                    !- Visible Absorptance

Material,
  Wall Insulation [40],                   !- Name
  MediumRough,                            !- Roughness
  0.0794,                                 !- Thickness {m}
  0.0432,                                 !- Conductivity {W/m-K}
  91,                                     !- Density {kg/m3}
  837,                                    !- Specific Heat {J/kg-K}
  0.9,                                    !- Thermal Absorptance
  0.5,                                    !- Solar Absorptance
  0.5;                                    !- Visible Absorptance

Material,
  Wall Insulation [41],                   !- Name
  MediumRough,                            !- Roughness
  0.1405,                                 !- Thickness {m}
  0.045,                                  !- Conductivity {W/m-K}
  265,                                    !- Density {kg/m3}
  836.8,                                  !- Specific Heat {J/kg-K}
  0.9,                                    !- Thermal Absorptance
  0.7,                                    !- Solar Absorptance
  0.7;                                    !- Visible Absorptance

Material,
  Wall Insulation [42],                   !- Name
  MediumRough,                            !- Roughness
  0.0914,                                 !- Thickness {m}
  0.0432,                                 !- Conductivity {W/m-K}
  91,                                     !- Density {kg/m3}
  837,                                    !- Specific Heat {J/kg-K}
  0.9,                                    !- Thermal Absorptance
  0.5,                                    !- Solar Absorptance
  0.5;                                    !- Visible Absorptance

Material,
  Wall Insulation [43],                   !- Name
  MediumRough,                            !- Roughness
  0.1583,                                 !- Thickness {m}
  0.045,                                  !- Conductivity {W/m-K}
  265,                                    !- Density {kg/m3}
  836.8,                                  !- Specific Heat {J/kg-K}
  0.9,                                    !- Thermal Absorptance
  0.7,                                    !- Solar Absorptance
  0.7;                                    !- Visible Absorptance

Material,
  Wall Insulation [44],                   !- Name
  MediumRough,                            !- Roughness
  0.1104,                                 !- Thickness {m}
  0.0432,                                 !- Conductivity {W/m-K}
  91,                                     !- Density {kg/m3}
  837,                                    !- Specific Heat {J/kg-K}
  0.9,                                    !- Thermal Absorptance
  0.5,                                    !- Solar Absorptance
  0.5;                                    !- Visible Absorptance

Material,
  Wall Insulation [46],                   !- Name
  MediumRough,                            !- Roughness
  0.1634,                                 !- Thickness {m}
  0.0432,                                 !- Conductivity {W/m-K}
  91,                                     !- Density {kg/m3}
  837,                                    !- Specific Heat {J/kg-K}
  0.9,                                    !- Thermal Absorptance
  0.5,                                    !- Solar Absorptance
  0.5;                                    !- Visible Absorptance

Material,
  Wood Frame NonRes Wall Insulation-0.73, !- Name
  MediumRough,                            !- Roughness
  0.0202782469753007,                     !- Thickness {m}
  0.049,                                  !- Conductivity {W/m-K}
  265,                                    !- Density {kg/m3}
  836.8,                                  !- Specific Heat {J/kg-K}
  0.9,                                    !- Thermal Absorptance
  0.7,                                    !- Solar Absorptance
  0.7;                                    !- Visible Absorptance

Material,
  Wood Frame NonRes Wall Insulation-0.80, !- Name
  MediumRough,                            !- Roughness
  0.0235471103181338,                     !- Thickness {m}
  0.049,                                  !- Conductivity {W/m-K}
  265,                                    !- Density {kg/m3}
  836.8,                                  !- Specific Heat {J/kg-K}
  0.9,                                    !- Thermal Absorptance
  0.7,                                    !- Solar Absorptance
  0.7;                                    !- Visible Absorptance

Material,
  Wood Frame NonRes Wall Insulation-1.10, !- Name
  MediumRough,                            !- Roughness
  0.0382569953608825,                     !- Thickness {m}
  0.049,                                  !- Conductivity {W/m-K}
  265,                                    !- Density {kg/m3}
  836.8,                                  !- Specific Heat {J/kg-K}
  0.9,                                    !- Thermal Absorptance
  0.7,                                    !- Solar Absorptance
  0.7;                                    !- Visible Absorptance

Material,
  Wood Frame NonRes Wall Insulation-1.17, !- Name
  MediumRough,                            !- Roughness
  0.0418527450379989,                     !- Thickness {m}
  0.049,                                  !- Conductivity {W/m-K}
  265,                                    !- Density {kg/m3}
  836.8,                                  !- Specific Heat {J/kg-K}
  0.9,                                    !- Thermal Absorptance
  0.7,                                    !- Solar Absorptance
  0.7;                                    !- Visible Absorptance

Material,
  Wood Frame NonRes Wall Insulation-1.36, !- Name
  MediumRough,                            !- Roughness
  0.0507038211662853,                     !- Thickness {m}
  0.049,                                  !- Conductivity {W/m-K}
  265,                                    !- Density {kg/m3}
  836.8,                                  !- Specific Heat {J/kg-K}
  0.9,                                    !- Thermal Absorptance
  0.7,                                    !- Solar Absorptance
  0.7;                                    !- Visible Absorptance

Material,
  Wood Frame NonRes Wall Insulation-1.76, !- Name
  MediumRough,                            !- Roughness
  0.0706187424549297,                     !- Thickness {m}
  0.049,                                  !- Conductivity {W/m-K}
  265,                                    !- Density {kg/m3}
  836.8,                                  !- Specific Heat {J/kg-K}
  0.9,                                    !- Thermal Absorptance
  0.7,                                    !- Solar Absorptance
  0.7;                                    !- Visible Absorptance

Material,
  Wood Frame NonRes Wall Insulation-1.92, !- Name
  MediumRough,                            !- Roughness
  0.0781229156941291,                     !- Thickness {m}
  0.049,                                  !- Conductivity {W/m-K}
  265,                                    !- Density {kg/m3}
  836.8,                                  !- Specific Heat {J/kg-K}
  0.9,                                    !- Thermal Absorptance
  0.7,                                    !- Solar Absorptance
  0.7;                                    !- Visible Absorptance

Material,
  Wood Frame NonRes Wall Insulation-1.98, !- Name
  MediumRough,                            !- Roughness
  0.0812847864409827,                     !- Thickness {m}
  0.049,                                  !- Conductivity {W/m-K}
  265,                                    !- Density {kg/m3}
  836.8,                                  !- Specific Heat {J/kg-K}
  0.9,                                    !- Thermal Absorptance
  0.7,                                    !- Solar Absorptance
  0.7;                                    !- Visible Absorptance

Material,
  Wood Frame NonRes Wall Insulation-2.15, !- Name
  MediumRough,                            !- Roughness
  0.0895622041685183,                     !- Thickness {m}
  0.049,                                  !- Conductivity {W/m-K}
  265,                                    !- Density {kg/m3}
  836.8,                                  !- Specific Heat {J/kg-K}
  0.9,                                    !- Thermal Absorptance
  0.7,                                    !- Solar Absorptance
  0.7;                                    !- Visible Absorptance

Material,
  Wood Frame NonRes Wall Insulation-2.44, !- Name
  MediumRough,                            !- Roughness
  0.104179072774682,                      !- Thickness {m}
  0.049,                                  !- Conductivity {W/m-K}
  265,                                    !- Density {kg/m3}
  836.8,                                  !- Specific Heat {J/kg-K}
  0.9,                                    !- Thermal Absorptance
  0.7,                                    !- Solar Absorptance
  0.7;                                    !- Visible Absorptance

Material,
  Wood Frame NonRes Wall Insulation-2.71, !- Name
  MediumRough,                            !- Roughness
  0.117086892128433,                      !- Thickness {m}
  0.049,                                  !- Conductivity {W/m-K}
  265,                                    !- Density {kg/m3}
  836.8,                                  !- Specific Heat {J/kg-K}
  0.9,                                    !- Thermal Absorptance
  0.7,                                    !- Solar Absorptance
  0.7;                                    !- Visible Absorptance

Material,
  Wood Frame NonRes Wall Insulation-3.04, !- Name
  MediumRough,                            !- Roughness
  0.133110392015848,                      !- Thickness {m}
  0.049,                                  !- Conductivity {W/m-K}
  265,                                    !- Density {kg/m3}
  836.8,                                  !- Specific Heat {J/kg-K}
  0.9,                                    !- Thermal Absorptance
  0.7,                                    !- Solar Absorptance
  0.7;                                    !- Visible Absorptance

Material,
  Wood Frame NonRes Wall Insulation-3.45, !- Name
  MediumRough,                            !- Roughness
  0.153532499715495,                      !- Thickness {m}
  0.049,                                  !- Conductivity {W/m-K}
  265,                                    !- Density {kg/m3}
  836.8,                                  !- Specific Heat {J/kg-K}
  0.9,                                    !- Thermal Absorptance
  0.7,                                    !- Solar Absorptance
  0.7;                                    !- Visible Absorptance

Material,
  Wood Frame NonRes Wall Insulation-3.91, !- Name
  MediumRough,                            !- Roughness
  0.17609406631701,                       !- Thickness {m}
  0.049,                                  !- Conductivity {W/m-K}
  265,                                    !- Density {kg/m3}
  836.8,                                  !- Specific Heat {J/kg-K}
  0.9,                                    !- Thermal Absorptance
  0.7,                                    !- Solar Absorptance
  0.7;                                    !- Visible Absorptance

Material,
  Wood Siding,                            !- Name
  MediumSmooth,                           !- Roughness
  0.01,                                   !- Thickness {m}
  0.11,                                   !- Conductivity {W/m-K}
  544.62,                                 !- Density {kg/m3}
  1210,                                   !- Specific Heat {J/kg-K}
  0.9,                                    !- Thermal Absorptance
  0.78,                                   !- Solar Absorptance
  0.78;                                   !- Visible Absorptance

Material:AirGap,
  000 F04 Wall air space resistance,      !- Name
  0.15;                                   !- Thermal Resistance {m2-K/W}

Material:AirGap,
  000 F05 Ceiling air space resistance,   !- Name
  0.18;                                   !- Thermal Resistance {m2-K/W}

Material:NoMass,
  CP02 CARPET PAD,                        !- Name
  VeryRough,                              !- Roughness
  0.2165,                                 !- Thermal Resistance {m2-K/W}
  0.9,                                    !- Thermal Absorptance
  0.7,                                    !- Solar Absorptance
  0.8;                                    !- Visible Absorptance

Material:NoMass,
  MAT-SHEATH,                             !- Name
  Rough,                                  !- Roughness
  0.3626,                                 !- Thermal Resistance {m2-K/W}
  0.9,                                    !- Thermal Absorptance
  0.7,                                    !- Solar Absorptance
  0.7;                                    !- Visible Absorptance

WindowMaterial:Gas,
  000 Air 13mm,                           !- Name
  Air,                                    !- Gas Type
  0.0127;                                 !- Thickness {m}

WindowMaterial:Glazing,
  000 Clear 3mm,                          !- Name
  SpectralAverage,                        !- Optical Data Type
  ,                                       !- Window Glass Spectral Data Set Name
  0.003,                                  !- Thickness {m}
  0.837,                                  !- Solar Transmittance at Normal Incidence
  0.075,                                  !- Front Side Solar Reflectance at Normal Incidence
  0.075,                                  !- Back Side Solar Reflectance at Normal Incidence
  0.898,                                  !- Visible Transmittance at Normal Incidence
  0.081,                                  !- Front Side Visible Reflectance at Normal Incidence
  0.081,                                  !- Back Side Visible Reflectance at Normal Incidence
  0,                                      !- Infrared Transmittance at Normal Incidence
  0.84,                                   !- Front Side Infrared Hemispherical Emissivity
  0.84,                                   !- Back Side Infrared Hemispherical Emissivity
  0.9;                                    !- Conductivity {W/m-K}

WindowMaterial:Glazing,
  Theoretical Glass [167],                !- Name
  SpectralAverage,                        !- Optical Data Type
  ,                                       !- Window Glass Spectral Data Set Name
  0.003,                                  !- Thickness {m}
  0.2374,                                 !- Solar Transmittance at Normal Incidence
  0.7126,                                 !- Front Side Solar Reflectance at Normal Incidence
  0.7126,                                 !- Back Side Solar Reflectance at Normal Incidence
  0.2512,                                 !- Visible Transmittance at Normal Incidence
  0.6988,                                 !- Front Side Visible Reflectance at Normal Incidence
  0.6988,                                 !- Back Side Visible Reflectance at Normal Incidence
  0,                                      !- Infrared Transmittance at Normal Incidence
  0.985,                                  !- Front Side Infrared Hemispherical Emissivity
  0.985,                                  !- Back Side Infrared Hemispherical Emissivity
  2.1073,                                 !- Conductivity {W/m-K}
  1,                                      !- Dirt Correction Factor for Solar and Visible Transmittance
  No;                                     !- Solar Diffusing

WindowMaterial:Glazing,
  Theoretical Glass [197],                !- Name
  SpectralAverage,                        !- Optical Data Type
  ,                                       !- Window Glass Spectral Data Set Name
  0.003,                                  !- Thickness {m}
  0.2349,                                 !- Solar Transmittance at Normal Incidence
  0.7151,                                 !- Front Side Solar Reflectance at Normal Incidence
  0.7151,                                 !- Back Side Solar Reflectance at Normal Incidence
  0.2512,                                 !- Visible Transmittance at Normal Incidence
  0.6988,                                 !- Front Side Visible Reflectance at Normal Incidence
  0.6988,                                 !- Back Side Visible Reflectance at Normal Incidence
  0,                                      !- Infrared Transmittance at Normal Incidence
  0.9,                                    !- Front Side Infrared Hemispherical Emissivity
  0.9,                                    !- Back Side Infrared Hemispherical Emissivity
  0.0415,                                 !- Conductivity {W/m-K}
  1,                                      !- Dirt Correction Factor for Solar and Visible Transmittance
  No;                                     !- Solar Diffusing

WindowMaterial:Glazing,
  Theoretical Glass [202],                !- Name
  SpectralAverage,                        !- Optical Data Type
  ,                                       !- Window Glass Spectral Data Set Name
  0.003,                                  !- Thickness {m}
  0.2325,                                 !- Solar Transmittance at Normal Incidence
  0.7175,                                 !- Front Side Solar Reflectance at Normal Incidence
  0.7175,                                 !- Back Side Solar Reflectance at Normal Incidence
  0.3192,                                 !- Visible Transmittance at Normal Incidence
  0.6308,                                 !- Front Side Visible Reflectance at Normal Incidence
  0.6308,                                 !- Back Side Visible Reflectance at Normal Incidence
  0,                                      !- Infrared Transmittance at Normal Incidence
  0.9,                                    !- Front Side Infrared Hemispherical Emissivity
  0.9,                                    !- Back Side Infrared Hemispherical Emissivity
  0.0192,                                 !- Conductivity {W/m-K}
  1,                                      !- Dirt Correction Factor for Solar and Visible Transmittance
  No;                                     !- Solar Diffusing

WindowMaterial:Glazing,
  Theoretical Glass [207],                !- Name
  SpectralAverage,                        !- Optical Data Type
  ,                                       !- Window Glass Spectral Data Set Name
  0.003,                                  !- Thickness {m}
  0.3311,                                 !- Solar Transmittance at Normal Incidence
  0.6189,                                 !- Front Side Solar Reflectance at Normal Incidence
  0.6189,                                 !- Back Side Solar Reflectance at Normal Incidence
  0.44,                                   !- Visible Transmittance at Normal Incidence
  0.51,                                   !- Front Side Visible Reflectance at Normal Incidence
  0.51,                                   !- Back Side Visible Reflectance at Normal Incidence
  0,                                      !- Infrared Transmittance at Normal Incidence
  0.9,                                    !- Front Side Infrared Hemispherical Emissivity
  0.9,                                    !- Back Side Infrared Hemispherical Emissivity
  0.0133,                                 !- Conductivity {W/m-K}
  1,                                      !- Dirt Correction Factor for Solar and Visible Transmittance
  No;                                     !- Solar Diffusing

WindowMaterial:Glazing,
  Theoretical Glass [216],                !- Name
  SpectralAverage,                        !- Optical Data Type
  ,                                       !- Window Glass Spectral Data Set Name
  0.003,                                  !- Thickness {m}
  0.3801,                                 !- Solar Transmittance at Normal Incidence
  0.5699,                                 !- Front Side Solar Reflectance at Normal Incidence
  0.5699,                                 !- Back Side Solar Reflectance at Normal Incidence
  0.5079,                                 !- Visible Transmittance at Normal Incidence
  0.4421,                                 !- Front Side Visible Reflectance at Normal Incidence
  0.4421,                                 !- Back Side Visible Reflectance at Normal Incidence
  0,                                      !- Infrared Transmittance at Normal Incidence
  0.9,                                    !- Front Side Infrared Hemispherical Emissivity
  0.9,                                    !- Back Side Infrared Hemispherical Emissivity
  0.0133,                                 !- Conductivity {W/m-K}
  1,                                      !- Dirt Correction Factor for Solar and Visible Transmittance
  No;                                     !- Solar Diffusing

WindowMaterial:Glazing,
  Theoretical Glass [221],                !- Name
  SpectralAverage,                        !- Optical Data Type
  ,                                       !- Window Glass Spectral Data Set Name
  0.003,                                  !- Thickness {m}
  0.4296,                                 !- Solar Transmittance at Normal Incidence
  0.5204,                                 !- Front Side Solar Reflectance at Normal Incidence
  0.5204,                                 !- Back Side Solar Reflectance at Normal Incidence
  0.4503,                                 !- Visible Transmittance at Normal Incidence
  0.4997,                                 !- Front Side Visible Reflectance at Normal Incidence
  0.4997,                                 !- Back Side Visible Reflectance at Normal Incidence
  0,                                      !- Infrared Transmittance at Normal Incidence
  0.9,                                    !- Front Side Infrared Hemispherical Emissivity
  0.9,                                    !- Back Side Infrared Hemispherical Emissivity
  0.0089,                                 !- Conductivity {W/m-K}
  1,                                      !- Dirt Correction Factor for Solar and Visible Transmittance
  No;                                     !- Solar Diffusing

WindowMaterial:SimpleGlazingSystem,
  Fixed Window 2.62/0.30/0.21,            !- Name
  2.61188,                                !- U-Factor {W/m2-K}
  0.3,                                    !- Solar Heat Gain Coefficient
  0.21;                                   !- Visible Transmittance

WindowMaterial:SimpleGlazingSystem,
  Fixed Window 2.67/0.30/0.21,            !- Name
  2.66866,                                !- U-Factor {W/m2-K}
  0.49,                                   !- Solar Heat Gain Coefficient
  0.38;                                   !- Visible Transmittance

WindowMaterial:SimpleGlazingSystem,
  Fixed Window 2.96/0.39/0.31,            !- Name
  2.95256,                                !- U-Factor {W/m2-K}
  0.39,                                   !- Solar Heat Gain Coefficient
  0.31;                                   !- Visible Transmittance

WindowMaterial:SimpleGlazingSystem,
  Fixed Window 2.96/0.49/0.41,            !- Name
  2.95256,                                !- U-Factor {W/m2-K}
  0.49,                                   !- Solar Heat Gain Coefficient
  0.41;                                   !- Visible Transmittance

WindowMaterial:SimpleGlazingSystem,
  Fixed Window 2.96/0.62/0.54,            !- Name
  2.95256,                                !- U-Factor {W/m2-K}
  0.615,                                  !- Solar Heat Gain Coefficient
  0.54;                                   !- Visible Transmittance

WindowMaterial:SimpleGlazingSystem,
  Fixed Window 2.96/0.7/0.63,             !- Name
  2.95256,                                !- U-Factor {W/m2-K}
  0.7,                                    !- Solar Heat Gain Coefficient
  0.63;                                   !- Visible Transmittance

WindowMaterial:SimpleGlazingSystem,
  Fixed Window 3.24/0.25/0.16,            !- Name
  3.23646,                                !- U-Factor {W/m2-K}
  0.25,                                   !- Solar Heat Gain Coefficient
  0.16;                                   !- Visible Transmittance

WindowMaterial:SimpleGlazingSystem,
  Fixed Window 3.24/0.39/0.31,            !- Name
  3.23646,                                !- U-Factor {W/m2-K}
  0.39,                                   !- Solar Heat Gain Coefficient
  0.31;                                   !- Visible Transmittance

WindowMaterial:SimpleGlazingSystem,
  Fixed Window 3.24/0.49/0.41,            !- Name
  3.23646,                                !- U-Factor {W/m2-K}
  0.49,                                   !- Solar Heat Gain Coefficient
  0.41;                                   !- Visible Transmittance

WindowMaterial:SimpleGlazingSystem,
  Fixed Window 3.35/0.36/0.27,            !- Name
  3.35002,                                !- U-Factor {W/m2-K}
  0.36,                                   !- Solar Heat Gain Coefficient
  0.27;                                   !- Visible Transmittance

WindowMaterial:SimpleGlazingSystem,
  Fixed Window 3.35/0.39/0.31,            !- Name
  3.35002,                                !- U-Factor {W/m2-K}
  0.39,                                   !- Solar Heat Gain Coefficient
  0.31;                                   !- Visible Transmittance

WindowMaterial:SimpleGlazingSystem,
  Fixed Window 3.53/0.41/0.32,            !- Name
  3.52036,                                !- U-Factor {W/m2-K}
  0.41,                                   !- Solar Heat Gain Coefficient
  0.32;                                   !- Visible Transmittance

WindowMaterial:SimpleGlazingSystem,
  Fixed Window 3.81/0.3/.21,              !- Name
  2.95256,                                !- U-Factor {W/m2-K}
  0.3,                                    !- Solar Heat Gain Coefficient
  0.21;                                   !- Visible Transmittance

WindowMaterial:SimpleGlazingSystem,
  Fixed Window 3.81/0.39/0.27,            !- Name
  2.95256,                                !- U-Factor {W/m2-K}
  0.39,                                   !- Solar Heat Gain Coefficient
  0.27;                                   !- Visible Transmittance

WindowMaterial:SimpleGlazingSystem,
  Fixed Window 3.81/0.49/0.38,            !- Name
  2.95256,                                !- U-Factor {W/m2-K}
  0.49,                                   !- Solar Heat Gain Coefficient
  0.38;                                   !- Visible Transmittance

WindowMaterial:SimpleGlazingSystem,
  Fixed Window 4.09/0.26/0.13,            !- Name
  4.08816,                                !- U-Factor {W/m2-K}
  0.25,                                   !- Solar Heat Gain Coefficient
  0.13;                                   !- Visible Transmittance

WindowMaterial:SimpleGlazingSystem,
  Fixed Window 4.09/0.36/0.23,            !- Name
  4.08816,                                !- U-Factor {W/m2-K}
  0.36,                                   !- Solar Heat Gain Coefficient
  0.23;                                   !- Visible Transmittance

WindowMaterial:SimpleGlazingSystem,
  Fixed Window 4.09/0.39/0.25,            !- Name
  4.08816,                                !- U-Factor {W/m2-K}
  0.39,                                   !- Solar Heat Gain Coefficient
  0.25;                                   !- Visible Transmittance

WindowMaterial:SimpleGlazingSystem,
  Fixed Window 5.84/0.25/0.11,            !- Name
  6.92716,                                !- U-Factor {W/m2-K}
  0.25,                                   !- Solar Heat Gain Coefficient
  0.11;                                   !- Visible Transmittance

WindowMaterial:SimpleGlazingSystem,
  Fixed Window 5.84/0.39/0.22,            !- Name
  6.92716,                                !- U-Factor {W/m2-K}
  0.39,                                   !- Solar Heat Gain Coefficient
  0.22;                                   !- Visible Transmittance

WindowMaterial:SimpleGlazingSystem,
  Fixed Window 5.84/0.44/0.27,            !- Name
  6.92716,                                !- U-Factor {W/m2-K}
  0.44,                                   !- Solar Heat Gain Coefficient
  0.27;                                   !- Visible Transmittance

WindowMaterial:SimpleGlazingSystem,
  Fixed Window 5.84/0.54/0.38,            !- Name
  6.92716,                                !- U-Factor {W/m2-K}
  0.54,                                   !- Solar Heat Gain Coefficient
  0.38;                                   !- Visible Transmittance

WindowMaterial:SimpleGlazingSystem,
  Fixed Window 5.84/0.61/0.47,            !- Name
  6.92716,                                !- U-Factor {W/m2-K}
  0.61,                                   !- Solar Heat Gain Coefficient
  0.47;                                   !- Visible Transmittance

WindowMaterial:SimpleGlazingSystem,
  Fixed Window 5.84/0.70/0.60,            !- Name
  6.92716,                                !- U-Factor {W/m2-K}
  0.7,                                    !- Solar Heat Gain Coefficient
  0.6;                                    !- Visible Transmittance

Construction,
  000 AtticRoof ClimateZone 1-8,          !- Name
  Roof Membrane,                          !- Layer 1
  Metal Decking;                          !- Layer 2

Construction,
  000 Exterior Door,                      !- Name
  000 F08 Metal surface,                  !- Layer 1
  000 I01 25mm insulation board;          !- Layer 2

Construction,
  000 Exterior Floor,                     !- Name
  000 I02 50mm insulation board,          !- Layer 1
  000 M15 200mm heavyweight concrete;     !- Layer 2

Construction,
  000 Exterior Roof,                      !- Name
  000 M11 100mm lightweight concrete,     !- Layer 1
  000 F05 Ceiling air space resistance,   !- Layer 2
  000 F16 Acoustic tile;                  !- Layer 3

Construction,
  000 Exterior Wall,                      !- Name
  000 M01 100mm brick,                    !- Layer 1
  000 M15 200mm heavyweight concrete,     !- Layer 2
  000 I02 50mm insulation board,          !- Layer 3
  000 F04 Wall air space resistance,      !- Layer 4
  000 G01a 19mm gypsum board;             !- Layer 5

Construction,
  000 Exterior Window,                    !- Name
  000 Clear 3mm,                          !- Layer 1
  000 Air 13mm,                           !- Layer 2
  000 Clear 3mm;                          !- Layer 3

Construction,
  000 ExtSlab 4in ClimateZone 1-8,        !- Name
  MAT-CC05 4 HW CONCRETE;                 !- Layer 1

Construction,
  000 ExtSlab 8in ClimateZone 1-8,        !- Name
  MAT-CC05 8 HW CONCRETE;                 !- Layer 1

Construction,
  000 ExtSlabCarpet 4in ClimateZone 1-8,  !- Name
  MAT-CC05 4 HW CONCRETE,                 !- Layer 1
  CP02 CARPET PAD;                        !- Layer 2

Construction,
  000 ExtSlabCarpet 8in ClimateZone 1-8,  !- Name
  MAT-CC05 8 HW CONCRETE,                 !- Layer 1
  CP02 CARPET PAD;                        !- Layer 2

Construction,
  000 Interior Ceiling,                   !- Name
  000 M11 100mm lightweight concrete,     !- Layer 1
  000 F05 Ceiling air space resistance,   !- Layer 2
  000 F16 Acoustic tile;                  !- Layer 3

Construction,
  000 Interior Door,                      !- Name
  000 G05 25mm wood;                      !- Layer 1

Construction,
  000 Interior Floor,                     !- Name
  000 F16 Acoustic tile,                  !- Layer 1
  000 F05 Ceiling air space resistance,   !- Layer 2
  000 M11 100mm lightweight concrete;     !- Layer 3

Construction,
  000 Interior Partition,                 !- Name
  000 G05 25mm wood;                      !- Layer 1

Construction,
  000 Interior Wall,                      !- Name
  000 G01a 19mm gypsum board,             !- Layer 1
  000 F04 Wall air space resistance,      !- Layer 2
  000 G01a 19mm gypsum board;             !- Layer 3

Construction,
  000 Interior Window,                    !- Name
  000 Clear 3mm;                          !- Layer 1

Construction,
  ASHRAE 189.1-2009 AtticFloor ClimateZone 1-8, !- Name
  1/2IN Gypsum,                           !- Layer 1
  AtticFloor Insulation,                  !- Layer 2
  1/2IN Gypsum;                           !- Layer 3

Construction,
  ASHRAE 189.1-2009 ExtRoof IEAD ClimateZone 1, !- Name
  Roof Membrane,                          !- Layer 1
  Roof Insulation [18],                   !- Layer 2
  Metal Decking;                          !- Layer 3

Construction,
  ASHRAE 189.1-2009 ExtRoof IEAD ClimateZone 2-5, !- Name
  Roof Membrane,                          !- Layer 1
  Roof Insulation [21],                   !- Layer 2
  Metal Decking;                          !- Layer 3

Construction,
  ASHRAE 189.1-2009 ExtRoof IEAD ClimateZone 6, !- Name
  Roof Membrane,                          !- Layer 1
  Roof Insulation [24],                   !- Layer 2
  Metal Decking;                          !- Layer 3

Construction,
  ASHRAE 189.1-2009 ExtRoof IEAD ClimateZone 7-8, !- Name
  Roof Membrane,                          !- Layer 1
  Roof Insulation [26],                   !- Layer 2
  Metal Decking;                          !- Layer 3

Construction,
  ASHRAE 189.1-2009 ExtRoof Metal ClimateZone 1, !- Name
  Metal Roofing,                          !- Layer 1
  Roof Insulation [19];                   !- Layer 2

Construction,
  ASHRAE 189.1-2009 ExtRoof Metal ClimateZone 2-5, !- Name
  Metal Roofing,                          !- Layer 1
  Roof Insulation [22];                   !- Layer 2

Construction,
  ASHRAE 189.1-2009 ExtRoof Metal ClimateZone 6, !- Name
  Metal Roofing,                          !- Layer 1
  Roof Insulation [25];                   !- Layer 2

Construction,
  ASHRAE 189.1-2009 ExtRoof Metal ClimateZone 7-8, !- Name
  Metal Roofing,                          !- Layer 1
  Roof Insulation [27];                   !- Layer 2

Construction,
  ASHRAE 189.1-2009 ExtWall Mass ClimateZone 1, !- Name
  1IN Stucco,                             !- Layer 1
  8IN Concrete HW,                        !- Layer 2
  Wall Insulation [31],                   !- Layer 3
  1/2IN Gypsum;                           !- Layer 4

Construction,
  ASHRAE 189.1-2009 ExtWall Mass ClimateZone 2, !- Name
  1IN Stucco,                             !- Layer 1
  8IN Concrete HW,                        !- Layer 2
  Wall Insulation [35],                   !- Layer 3
  1/2IN Gypsum;                           !- Layer 4

Construction,
  ASHRAE 189.1-2009 ExtWall Mass ClimateZone 3, !- Name
  1IN Stucco,                             !- Layer 1
  8IN Concrete HW,                        !- Layer 2
  Wall Insulation [36],                   !- Layer 3
  1/2IN Gypsum;                           !- Layer 4

Construction,
  ASHRAE 189.1-2009 ExtWall Mass ClimateZone 4, !- Name
  1IN Stucco,                             !- Layer 1
  8IN Concrete HW,                        !- Layer 2
  Wall Insulation [37],                   !- Layer 3
  1/2IN Gypsum;                           !- Layer 4

Construction,
  ASHRAE 189.1-2009 ExtWall Mass ClimateZone 5, !- Name
  1IN Stucco,                             !- Layer 1
  8IN Concrete HW,                        !- Layer 2
  Wall Insulation [40],                   !- Layer 3
  1/2IN Gypsum;                           !- Layer 4

Construction,
  ASHRAE 189.1-2009 ExtWall Mass ClimateZone 6, !- Name
  1IN Stucco,                             !- Layer 1
  8IN Concrete HW,                        !- Layer 2
  Wall Insulation [42],                   !- Layer 3
  1/2IN Gypsum;                           !- Layer 4

Construction,
  ASHRAE 189.1-2009 ExtWall Mass ClimateZone 7-8, !- Name
  1IN Stucco,                             !- Layer 1
  8IN Concrete HW,                        !- Layer 2
  Wall Insulation [44],                   !- Layer 3
  1/2IN Gypsum;                           !- Layer 4

Construction,
  ASHRAE 189.1-2009 ExtWall Mass ClimateZone alt-res 1, !- Name
  1IN Stucco,                             !- Layer 1
  8IN Concrete HW,                        !- Layer 2
  Wall Insulation [35],                   !- Layer 3
  1/2IN Gypsum;                           !- Layer 4

Construction,
  ASHRAE 189.1-2009 ExtWall Mass ClimateZone alt-res 2, !- Name
  1IN Stucco,                             !- Layer 1
  8IN Concrete HW,                        !- Layer 2
  Wall Insulation [36],                   !- Layer 3
  1/2IN Gypsum;                           !- Layer 4

Construction,
  ASHRAE 189.1-2009 ExtWall Mass ClimateZone alt-res 3, !- Name
  1IN Stucco,                             !- Layer 1
  8IN Concrete HW,                        !- Layer 2
  Wall Insulation [37],                   !- Layer 3
  1/2IN Gypsum;                           !- Layer 4

Construction,
  ASHRAE 189.1-2009 ExtWall Mass ClimateZone alt-res 4, !- Name
  1IN Stucco,                             !- Layer 1
  8IN Concrete HW,                        !- Layer 2
  Wall Insulation [40],                   !- Layer 3
  1/2IN Gypsum;                           !- Layer 4

Construction,
  ASHRAE 189.1-2009 ExtWall Mass ClimateZone alt-res 5, !- Name
  1IN Stucco,                             !- Layer 1
  8IN Concrete HW,                        !- Layer 2
  Wall Insulation [42],                   !- Layer 3
  1/2IN Gypsum;                           !- Layer 4

Construction,
  ASHRAE 189.1-2009 ExtWall Mass ClimateZone alt-res 6, !- Name
  1IN Stucco,                             !- Layer 1
  8IN Concrete HW,                        !- Layer 2
  Wall Insulation [44],                   !- Layer 3
  1/2IN Gypsum;                           !- Layer 4

Construction,
  ASHRAE 189.1-2009 ExtWall Mass ClimateZone alt-res 7, !- Name
  1IN Stucco,                             !- Layer 1
  8IN Concrete HW,                        !- Layer 2
  Wall Insulation [44],                   !- Layer 3
  1/2IN Gypsum;                           !- Layer 4

Construction,
  ASHRAE 189.1-2009 ExtWall Mass ClimateZone alt-res 8, !- Name
  1IN Stucco,                             !- Layer 1
  8IN Concrete HW,                        !- Layer 2
  Wall Insulation [46],                   !- Layer 3
  1/2IN Gypsum;                           !- Layer 4

Construction,
  ASHRAE 189.1-2009 ExtWall Metal ClimateZone 1-3, !- Name
  Metal Siding,                           !- Layer 1
  Wall Insulation [32],                   !- Layer 2
  1/2IN Gypsum;                           !- Layer 3

Construction,
  ASHRAE 189.1-2009 ExtWall Metal ClimateZone 4-8, !- Name
  Metal Siding,                           !- Layer 1
  Wall Insulation [38],                   !- Layer 2
  1/2IN Gypsum;                           !- Layer 3

Construction,
  ASHRAE 189.1-2009 ExtWall SteelFrame ClimateZone 1-3, !- Name
  MAT-SHEATH,                             !- Layer 1
  Wall Insulation [33],                   !- Layer 2
  1/2IN Gypsum;                           !- Layer 3

Construction,
  ASHRAE 189.1-2009 ExtWall SteelFrame ClimateZone 4-8, !- Name
  MAT-SHEATH,                             !- Layer 1
  Wall Insulation [39],                   !- Layer 2
  1/2IN Gypsum;                           !- Layer 3

Construction,
  ASHRAE 189.1-2009 ExtWall WoodFrame ClimateZone 1-4, !- Name
  Wood Siding,                            !- Layer 1
  Wall Insulation [34],                   !- Layer 2
  1/2IN Gypsum;                           !- Layer 3

Construction,
  ASHRAE 189.1-2009 ExtWall WoodFrame ClimateZone 5, !- Name
  Wood Siding,                            !- Layer 1
  Wall Insulation [41],                   !- Layer 2
  1/2IN Gypsum;                           !- Layer 3

Construction,
  ASHRAE 189.1-2009 ExtWall WoodFrame ClimateZone 6-8, !- Name
  Wood Siding,                            !- Layer 1
  Wall Insulation [43],                   !- Layer 2
  1/2IN Gypsum;                           !- Layer 3

Construction,
  ASHRAE 189.1-2009 ExtWindow ClimateZone 1, !- Name
  Theoretical Glass [167];                !- Layer 1

Construction,
  ASHRAE 189.1-2009 ExtWindow ClimateZone 2, !- Name
  Theoretical Glass [197];                !- Layer 1

Construction,
  ASHRAE 189.1-2009 ExtWindow ClimateZone 3, !- Name
  Theoretical Glass [202];                !- Layer 1

Construction,
  ASHRAE 189.1-2009 ExtWindow ClimateZone 4-5, !- Name
  Theoretical Glass [207];                !- Layer 1

Construction,
  ASHRAE 189.1-2009 ExtWindow ClimateZone 6, !- Name
  Theoretical Glass [216];                !- Layer 1

Construction,
  ASHRAE 189.1-2009 ExtWindow ClimateZone 7-8, !- Name
  Theoretical Glass [221];                !- Layer 1

Construction,
  ASHRAE 189.1-2009 ExtWindow ClimateZone alt-res 4-5, !- Name
  Theoretical Glass [216];                !- Layer 1

Construction,
  ASHRAE 90.1-2004 AtticFloor ClimateZone 1-5, !- Name
  1/2IN Gypsum,                           !- Layer 1
  AtticFloor NonRes Insulation-5.18,      !- Layer 2
  1/2IN Gypsum;                           !- Layer 3

Construction,
  ASHRAE 90.1-2004 AtticFloor ClimateZone 6-8, !- Name
  1/2IN Gypsum,                           !- Layer 1
  AtticFloor NonRes Insulation-6.52,      !- Layer 2
  1/2IN Gypsum;                           !- Layer 3

Construction,
  ASHRAE 90.1-2004 ExtRoof IEAD ClimateZone 1-4, !- Name
  Roof Membrane,                          !- Layer 1
  IEAD NonRes Roof Insulation-2.79,       !- Layer 2
  Metal Decking;                          !- Layer 3

Construction,
  ASHRAE 90.1-2004 ExtRoof IEAD ClimateZone 5-6, !- Name
  Roof Membrane,                          !- Layer 1
  IEAD NonRes Roof Insulation-2.85,       !- Layer 2
  Metal Decking;                          !- Layer 3

Construction,
  ASHRAE 90.1-2004 ExtRoof IEAD ClimateZone 7, !- Name
  Roof Membrane,                          !- Layer 1
  IEAD NonRes Roof Insulation-2.79,       !- Layer 2
  Metal Decking;                          !- Layer 3

Construction,
  ASHRAE 90.1-2004 ExtRoof IEAD ClimateZone 8, !- Name
  Roof Membrane,                          !- Layer 1
  IEAD NonRes Roof Insulation-3.72,       !- Layer 2
  Metal Decking;                          !- Layer 3

Construction,
  ASHRAE 90.1-2004 ExtRoof Metal ClimateZone 1, !- Name
  Metal Roofing;                          !- Layer 1

Construction,
  ASHRAE 90.1-2004 ExtRoof Metal ClimateZone 2, !- Name
  Metal Roofing,                          !- Layer 1
  Metal Semi-Cond Roof Insulation-1.05;   !- Layer 2

Construction,
  ASHRAE 90.1-2004 ExtRoof Metal ClimateZone 3-4, !- Name
  Metal Roofing,                          !- Layer 1
  Metal Semi-Cond Roof Insulation-1.81;   !- Layer 2

Construction,
  ASHRAE 90.1-2004 ExtRoof Metal ClimateZone 5-6, !- Name
  Metal Roofing,                          !- Layer 1
  Metal Semi-Cond Roof Insulation-1.87;   !- Layer 2

Construction,
  ASHRAE 90.1-2004 ExtRoof Metal ClimateZone 7, !- Name
  Metal Roofing,                          !- Layer 1
  Metal Semi-Cond Roof Insulation-1.81;   !- Layer 2

Construction,
  ASHRAE 90.1-2004 ExtRoof Metal ClimateZone 8, !- Name
  Metal Roofing,                          !- Layer 1
  Metal Semi-Cond Roof Insulation-2.50;   !- Layer 2

Construction,
  ASHRAE 90.1-2004 ExtWall Mass ClimateZone 1-2, !- Name
  1IN Stucco,                             !- Layer 1
  8IN CONCRETE HW RefBldg,                !- Layer 2
  1/2IN Gypsum;                           !- Layer 3

Construction,
  ASHRAE 90.1-2004 ExtWall Mass ClimateZone 3-4, !- Name
  1IN Stucco,                             !- Layer 1
  8IN CONCRETE HW RefBldg,                !- Layer 2
  Mass NonRes Wall Insulation-1.17,       !- Layer 3
  1/2IN Gypsum;                           !- Layer 4

Construction,
  ASHRAE 90.1-2004 ExtWall Mass ClimateZone 5, !- Name
  1IN Stucco,                             !- Layer 1
  8IN CONCRETE HW RefBldg,                !- Layer 2
  Mass NonRes Wall Insulation-1.43,       !- Layer 3
  1/2IN Gypsum;                           !- Layer 4

Construction,
  ASHRAE 90.1-2004 ExtWall Mass ClimateZone 6, !- Name
  1IN Stucco,                             !- Layer 1
  8IN CONCRETE HW RefBldg,                !- Layer 2
  Mass NonRes Wall Insulation-1.69,       !- Layer 3
  1/2IN Gypsum;                           !- Layer 4

Construction,
  ASHRAE 90.1-2004 ExtWall Mass ClimateZone 7, !- Name
  1IN Stucco,                             !- Layer 1
  8IN CONCRETE HW RefBldg,                !- Layer 2
  Mass NonRes Wall Insulation-1.96,       !- Layer 3
  1/2IN Gypsum;                           !- Layer 4

Construction,
  ASHRAE 90.1-2004 ExtWall Mass ClimateZone 8, !- Name
  1IN Stucco,                             !- Layer 1
  8IN CONCRETE HW RefBldg,                !- Layer 2
  Mass NonRes Wall Insulation-2.20,       !- Layer 3
  1/2IN Gypsum;                           !- Layer 4

Construction,
  ASHRAE 90.1-2004 ExtWall Mass ClimateZone alt-res 1-2, !- Name
  1IN Stucco,                             !- Layer 1
  8IN CONCRETE HW RefBldg,                !- Layer 2
  Mass NonRes Wall Insulation-1.17,       !- Layer 3
  1/2IN Gypsum;                           !- Layer 4

Construction,
  ASHRAE 90.1-2004 ExtWall Mass ClimateZone alt-res 3, !- Name
  1IN Stucco,                             !- Layer 1
  8IN CONCRETE HW RefBldg,                !- Layer 2
  Mass NonRes Wall Insulation-1.43,       !- Layer 3
  1/2IN Gypsum;                           !- Layer 4

Construction,
  ASHRAE 90.1-2004 ExtWall Mass ClimateZone alt-res 4, !- Name
  1IN Stucco,                             !- Layer 1
  8IN CONCRETE HW RefBldg,                !- Layer 2
  Mass NonRes Wall Insulation-1.69,       !- Layer 3
  1/2IN Gypsum;                           !- Layer 4

Construction,
  ASHRAE 90.1-2004 ExtWall Mass ClimateZone alt-res 5-6, !- Name
  1IN Stucco,                             !- Layer 1
  8IN CONCRETE HW RefBldg,                !- Layer 2
  Mass NonRes Wall Insulation-1.96,       !- Layer 3
  1/2IN Gypsum;                           !- Layer 4

Construction,
  ASHRAE 90.1-2004 ExtWall Mass ClimateZone alt-res 7, !- Name
  1IN Stucco,                             !- Layer 1
  8IN CONCRETE HW RefBldg,                !- Layer 2
  Mass NonRes Wall Insulation-2.20,       !- Layer 3
  1/2IN Gypsum;                           !- Layer 4

Construction,
  ASHRAE 90.1-2004 ExtWall Mass ClimateZone alt-res 8, !- Name
  1IN Stucco,                             !- Layer 1
  8IN CONCRETE HW RefBldg,                !- Layer 2
  Mass NonRes Wall Insulation-2.48,       !- Layer 3
  1/2IN Gypsum;                           !- Layer 4

Construction,
  ASHRAE 90.1-2004 ExtWall Metal ClimateZone 1, !- Name
  Metal Siding,                           !- Layer 1
  1/2IN Gypsum;                           !- Layer 2

Construction,
  ASHRAE 90.1-2004 ExtWall Metal ClimateZone 2-3, !- Name
  Metal Siding,                           !- Layer 1
  Metal Building Semi-Cond Wall Insulation-0.77, !- Layer 2
  1/2IN Gypsum;                           !- Layer 3

Construction,
  ASHRAE 90.1-2004 ExtWall Metal ClimateZone 4, !- Name
  Metal Siding,                           !- Layer 1
  Metal Building Semi-Cond Wall Insulation-1.12, !- Layer 2
  1/2IN Gypsum;                           !- Layer 3

Construction,
  ASHRAE 90.1-2004 ExtWall Metal ClimateZone 5, !- Name
  Metal Siding,                           !- Layer 1
  Metal Building Semi-Cond Wall Insulation-1.24, !- Layer 2
  1/2IN Gypsum;                           !- Layer 3

Construction,
  ASHRAE 90.1-2004 ExtWall Metal ClimateZone 6-8, !- Name
  Metal Siding,                           !- Layer 1
  Metal Building Semi-Cond Wall Insulation-1.37, !- Layer 2
  1/2IN Gypsum;                           !- Layer 3

Construction,
  ASHRAE 90.1-2004 ExtWall SteelFrame ClimateZone 1-4, !- Name
  Wood Siding,                            !- Layer 1
  Steel Frame NonRes Wall Insulation-1.42, !- Layer 2
  1/2IN Gypsum;                           !- Layer 3

Construction,
  ASHRAE 90.1-2004 ExtWall SteelFrame ClimateZone 5-6, !- Name
  Wood Siding,                            !- Layer 1
  Steel Frame NonRes Wall Insulation-2.10, !- Layer 2
  1/2IN Gypsum;                           !- Layer 3

Construction,
  ASHRAE 90.1-2004 ExtWall SteelFrame ClimateZone 7-8, !- Name
  Wood Siding,                            !- Layer 1
  Steel Frame NonRes Wall Insulation-2.75, !- Layer 2
  1/2IN Gypsum;                           !- Layer 3

Construction,
  ASHRAE 90.1-2004 ExtWall SteelFrame ClimateZone alt-res 3, !- Name
  Wood Siding,                            !- Layer 1
  Steel Frame NonRes Wall Insulation-2.10, !- Layer 2
  1/2IN Gypsum;                           !- Layer 3

Construction,
  ASHRAE 90.1-2004 ExtWall SteelFrame ClimateZone alt-res 4-6, !- Name
  Wood Siding,                            !- Layer 1
  Steel Frame NonRes Wall Insulation-2.75, !- Layer 2
  1/2IN Gypsum;                           !- Layer 3

Construction,
  ASHRAE 90.1-2004 ExtWall SteelFrame ClimateZone alt-res 8, !- Name
  Wood Siding,                            !- Layer 1
  Steel Frame NonRes Wall Insulation-3.21, !- Layer 2
  1/2IN Gypsum;                           !- Layer 3

Construction,
  ASHRAE 90.1-2004 ExtWall WoodFrame ClimateZone 1-7, !- Name
  Wood Siding,                            !- Layer 1
  Wood Frame NonRes Wall Insulation-1.98, !- Layer 2
  1/2IN Gypsum;                           !- Layer 3

Construction,
  ASHRAE 90.1-2004 ExtWall WoodFrame ClimateZone 8, !- Name
  Wood Siding,                            !- Layer 1
  Wood Frame NonRes Wall Insulation-3.45, !- Layer 2
  1/2IN Gypsum;                           !- Layer 3

Construction,
  ASHRAE 90.1-2004 ExtWindow ClimateZone 1-2, !- Name
  Fixed Window 5.84/0.25/0.11;            !- Layer 1

Construction,
  ASHRAE 90.1-2004 ExtWindow ClimateZone 3a-3b, !- Name
  Fixed Window 3.24/0.25/0.16;            !- Layer 1

Construction,
  ASHRAE 90.1-2004 ExtWindow ClimateZone 3c, !- Name
  Fixed Window 5.84/0.39/0.22;            !- Layer 1

Construction,
  ASHRAE 90.1-2004 ExtWindow ClimateZone 4-6, !- Name
  Fixed Window 3.24/0.39/0.31;            !- Layer 1

Construction,
  ASHRAE 90.1-2004 ExtWindow ClimateZone 7, !- Name
  Fixed Window 3.24/0.49/0.41;            !- Layer 1

Construction,
  ASHRAE 90.1-2004 ExtWindow ClimateZone 8, !- Name
  Fixed Window 2.62/0.30/0.21;            !- Layer 1

Construction,
  ASHRAE 90.1-2004 ExtWindow ClimateZone alt-res 3c, !- Name
  Fixed Window 5.84/0.61/0.47;            !- Layer 1

Construction,
  ASHRAE 90.1-2004 ExtWindow ClimateZone alt-res 4-6, !- Name
  Fixed Window 3.81/0.39/0.27;            !- Layer 1

Construction,
  ASHRAE 90.1-2004 ExtWindow ClimateZone alt-res 7, !- Name
  Fixed Window 3.81/0.49/0.38;            !- Layer 1

Construction,
  ASHRAE 90.1-2004 ExtWindow ClimateZone alt-res 8, !- Name
  Fixed Window 2.67/0.30/0.21;            !- Layer 1

Construction,
  ASHRAE 90.1-2004 ExtWindow ClimateZone alt-resA 3a-3b, !- Name
  Fixed Window 3.81/0.39/0.27;            !- Layer 1

Construction,
  ASHRAE 90.1-2004 ExtWindow ClimateZone alt-resH 3a-3b, !- Name
  Fixed Window 3.24/0.39/0.31;            !- Layer 1

Construction,
  ASHRAE 90.1-2004 ExtWindow ClimateZone alt-ware 1-8, !- Name
  Fixed Window 5.84/0.70/0.60;            !- Layer 1

Construction,
  CBECS 1980-2004 ExtRoof AtticFloor ClimateZone 1, !- Name
  1/2IN Gypsum,                           !- Layer 1
  AtticFloor NonRes Insulation-2.38,      !- Layer 2
  1/2IN Gypsum;                           !- Layer 3

Construction,
  CBECS 1980-2004 ExtRoof AtticFloor ClimateZone 2a, !- Name
  1/2IN Gypsum,                           !- Layer 1
  AtticFloor NonRes Insulation-2.67,      !- Layer 2
  1/2IN Gypsum;                           !- Layer 3

Construction,
  CBECS 1980-2004 ExtRoof AtticFloor ClimateZone 2b, !- Name
  1/2IN Gypsum,                           !- Layer 1
  AtticFloor NonRes Insulation-3.83,      !- Layer 2
  1/2IN Gypsum;                           !- Layer 3

Construction,
  CBECS 1980-2004 ExtRoof AtticFloor ClimateZone 3a, !- Name
  1/2IN Gypsum,                           !- Layer 1
  AtticFloor NonRes Insulation-2.45,      !- Layer 2
  1/2IN Gypsum;                           !- Layer 3

Construction,
  CBECS 1980-2004 ExtRoof AtticFloor ClimateZone 3b LAS, !- Name
  1/2IN Gypsum,                           !- Layer 1
  AtticFloor NonRes Insulation-3.67,      !- Layer 2
  1/2IN Gypsum;                           !- Layer 3

Construction,
  CBECS 1980-2004 ExtRoof AtticFloor ClimateZone 3b LAX, !- Name
  1/2IN Gypsum,                           !- Layer 1
  AtticFloor NonRes Insulation-1.76,      !- Layer 2
  1/2IN Gypsum;                           !- Layer 3

Construction,
  CBECS 1980-2004 ExtRoof AtticFloor ClimateZone 3c, !- Name
  1/2IN Gypsum,                           !- Layer 1
  AtticFloor NonRes Insulation-2.00,      !- Layer 2
  1/2IN Gypsum;                           !- Layer 3

Construction,
  CBECS 1980-2004 ExtRoof AtticFloor ClimateZone 4a, !- Name
  1/2IN Gypsum,                           !- Layer 1
  AtticFloor NonRes Insulation-3.04,      !- Layer 2
  1/2IN Gypsum;                           !- Layer 3

Construction,
  CBECS 1980-2004 ExtRoof AtticFloor ClimateZone 4b, !- Name
  1/2IN Gypsum,                           !- Layer 1
  AtticFloor NonRes Insulation-2.99,      !- Layer 2
  1/2IN Gypsum;                           !- Layer 3

Construction,
  CBECS 1980-2004 ExtRoof AtticFloor ClimateZone 4c, !- Name
  1/2IN Gypsum,                           !- Layer 1
  AtticFloor NonRes Insulation-2.75,      !- Layer 2
  1/2IN Gypsum;                           !- Layer 3

Construction,
  CBECS 1980-2004 ExtRoof AtticFloor ClimateZone 5a, !- Name
  1/2IN Gypsum,                           !- Layer 1
  AtticFloor NonRes Insulation-3.32,      !- Layer 2
  1/2IN Gypsum;                           !- Layer 3

Construction,
  CBECS 1980-2004 ExtRoof AtticFloor ClimateZone 5b, !- Name
  1/2IN Gypsum,                           !- Layer 1
  AtticFloor NonRes Insulation-3.45,      !- Layer 2
  1/2IN Gypsum;                           !- Layer 3

Construction,
  CBECS 1980-2004 ExtRoof AtticFloor ClimateZone 6a, !- Name
  1/2IN Gypsum,                           !- Layer 1
  AtticFloor NonRes Insulation-3.91,      !- Layer 2
  1/2IN Gypsum;                           !- Layer 3

Construction,
  CBECS 1980-2004 ExtRoof AtticFloor ClimateZone 6b, !- Name
  1/2IN Gypsum,                           !- Layer 1
  AtticFloor NonRes Insulation-3.59,      !- Layer 2
  1/2IN Gypsum;                           !- Layer 3

Construction,
  CBECS 1980-2004 ExtRoof AtticFloor ClimateZone 7, !- Name
  1/2IN Gypsum,                           !- Layer 1
  AtticFloor NonRes Insulation-4.40,      !- Layer 2
  1/2IN Gypsum;                           !- Layer 3

Construction,
  CBECS 1980-2004 ExtRoof AtticFloor ClimateZone 8, !- Name
  1/2IN Gypsum,                           !- Layer 1
  AtticFloor NonRes Insulation-5.68,      !- Layer 2
  1/2IN Gypsum;                           !- Layer 3

Construction,
  CBECS 1980-2004 ExtRoof IEAD ClimateZone 1, !- Name
  Roof Membrane,                          !- Layer 1
  IEAD NonRes Roof Insulation-2.38,       !- Layer 2
  Metal Decking;                          !- Layer 3

Construction,
  CBECS 1980-2004 ExtRoof IEAD ClimateZone 2a, !- Name
  Roof Membrane,                          !- Layer 1
  IEAD NonRes Roof Insulation-2.67,       !- Layer 2
  Metal Decking;                          !- Layer 3

Construction,
  CBECS 1980-2004 ExtRoof IEAD ClimateZone 2b, !- Name
  Roof Membrane,                          !- Layer 1
  IEAD NonRes Roof Insulation-3.83,       !- Layer 2
  Metal Decking;                          !- Layer 3

Construction,
  CBECS 1980-2004 ExtRoof IEAD ClimateZone 3a, !- Name
  Roof Membrane,                          !- Layer 1
  IEAD NonRes Roof Insulation-2.44,       !- Layer 2
  Metal Decking;                          !- Layer 3

Construction,
  CBECS 1980-2004 ExtRoof IEAD ClimateZone 3b LAS, !- Name
  Roof Membrane,                          !- Layer 1
  IEAD NonRes Roof Insulation-3.66,       !- Layer 2
  Metal Decking;                          !- Layer 3

Construction,
  CBECS 1980-2004 ExtRoof IEAD ClimateZone 3b LAX, !- Name
  Roof Membrane,                          !- Layer 1
  IEAD NonRes Roof Insulation-1.76,       !- Layer 2
  Metal Decking;                          !- Layer 3

Construction,
  CBECS 1980-2004 ExtRoof IEAD ClimateZone 3c, !- Name
  Roof Membrane,                          !- Layer 1
  IEAD NonRes Roof Insulation-2.00,       !- Layer 2
  Metal Decking;                          !- Layer 3

Construction,
  CBECS 1980-2004 ExtRoof IEAD ClimateZone 4a, !- Name
  Roof Membrane,                          !- Layer 1
  IEAD NonRes Roof Insulation-3.03,       !- Layer 2
  Metal Decking;                          !- Layer 3

Construction,
  CBECS 1980-2004 ExtRoof IEAD ClimateZone 4b, !- Name
  Roof Membrane,                          !- Layer 1
  IEAD NonRes Roof Insulation-2.99,       !- Layer 2
  Metal Decking;                          !- Layer 3

Construction,
  CBECS 1980-2004 ExtRoof IEAD ClimateZone 4c, !- Name
  Roof Membrane,                          !- Layer 1
  IEAD NonRes Roof Insulation-2.75,       !- Layer 2
  Metal Decking;                          !- Layer 3

Construction,
  CBECS 1980-2004 ExtRoof IEAD ClimateZone 5a, !- Name
  Roof Membrane,                          !- Layer 1
  IEAD NonRes Roof Insulation-3.38,       !- Layer 2
  Metal Decking;                          !- Layer 3

Construction,
  CBECS 1980-2004 ExtRoof IEAD ClimateZone 5b, !- Name
  Roof Membrane,                          !- Layer 1
  IEAD NonRes Roof Insulation-3.51,       !- Layer 2
  Metal Decking;                          !- Layer 3

Construction,
  CBECS 1980-2004 ExtRoof IEAD ClimateZone 6a, !- Name
  Roof Membrane,                          !- Layer 1
  IEAD NonRes Roof Insulation-3.97,       !- Layer 2
  Metal Decking;                          !- Layer 3

Construction,
  CBECS 1980-2004 ExtRoof IEAD ClimateZone 6b, !- Name
  Roof Membrane,                          !- Layer 1
  IEAD NonRes Roof Insulation-3.65,       !- Layer 2
  Metal Decking;                          !- Layer 3

Construction,
  CBECS 1980-2004 ExtRoof IEAD ClimateZone 7, !- Name
  Roof Membrane,                          !- Layer 1
  IEAD NonRes Roof Insulation-4.41,       !- Layer 2
  Metal Decking;                          !- Layer 3

Construction,
  CBECS 1980-2004 ExtRoof IEAD ClimateZone 8, !- Name
  Roof Membrane,                          !- Layer 1
  IEAD NonRes Roof Insulation-5.75,       !- Layer 2
  Metal Decking;                          !- Layer 3

Construction,
  CBECS 1980-2004 ExtRoof Metal ClimateZone 1, !- Name
  Metal Roofing,                          !- Layer 1
  Metal Semi-Cond Roof Insulation-2.38;   !- Layer 2

Construction,
  CBECS 1980-2004 ExtRoof Metal ClimateZone 2a, !- Name
  Metal Roofing,                          !- Layer 1
  Metal Semi-Cond Roof Insulation-2.67;   !- Layer 2

Construction,
  CBECS 1980-2004 ExtRoof Metal ClimateZone 2b, !- Name
  Metal Roofing,                          !- Layer 1
  Metal Semi-Cond Roof Insulation-3.83;   !- Layer 2

Construction,
  CBECS 1980-2004 ExtRoof Metal ClimateZone 3a, !- Name
  Metal Roofing,                          !- Layer 1
  Metal Semi-Cond Roof Insulation-2.44;   !- Layer 2

Construction,
  CBECS 1980-2004 ExtRoof Metal ClimateZone 3b LAS, !- Name
  Metal Roofing,                          !- Layer 1
  Metal Semi-Cond Roof Insulation-3.66;   !- Layer 2

Construction,
  CBECS 1980-2004 ExtRoof Metal ClimateZone 3b LAX, !- Name
  Metal Roofing,                          !- Layer 1
  Metal Semi-Cond Roof Insulation-1.76;   !- Layer 2

Construction,
  CBECS 1980-2004 ExtRoof Metal ClimateZone 3c, !- Name
  Metal Roofing,                          !- Layer 1
  Metal Semi-Cond Roof Insulation-2.00;   !- Layer 2

Construction,
  CBECS 1980-2004 ExtRoof Metal ClimateZone 4a, !- Name
  Metal Roofing,                          !- Layer 1
  Metal Semi-Cond Roof Insulation-3.03;   !- Layer 2

Construction,
  CBECS 1980-2004 ExtRoof Metal ClimateZone 4b, !- Name
  Metal Roofing,                          !- Layer 1
  Metal Semi-Cond Roof Insulation-2.99;   !- Layer 2

Construction,
  CBECS 1980-2004 ExtRoof Metal ClimateZone 4c, !- Name
  Metal Roofing,                          !- Layer 1
  Metal Semi-Cond Roof Insulation-2.75;   !- Layer 2

Construction,
  CBECS 1980-2004 ExtRoof Metal ClimateZone 5a, !- Name
  Metal Roofing,                          !- Layer 1
  Metal Semi-Cond Roof Insulation-3.38;   !- Layer 2

Construction,
  CBECS 1980-2004 ExtRoof Metal ClimateZone 5b, !- Name
  Metal Roofing,                          !- Layer 1
  Metal Semi-Cond Roof Insulation-3.38;   !- Layer 2

Construction,
  CBECS 1980-2004 ExtRoof Metal ClimateZone 6a, !- Name
  Metal Roofing,                          !- Layer 1
  Metal Semi-Cond Roof Insulation-3.97;   !- Layer 2

Construction,
  CBECS 1980-2004 ExtRoof Metal ClimateZone 6b, !- Name
  Metal Roofing,                          !- Layer 1
  Metal Semi-Cond Roof Insulation-3.65;   !- Layer 2

Construction,
  CBECS 1980-2004 ExtRoof Metal ClimateZone 7, !- Name
  Metal Roofing,                          !- Layer 1
  Metal Semi-Cond Roof Insulation-4.41;   !- Layer 2

Construction,
  CBECS 1980-2004 ExtRoof Metal ClimateZone 8, !- Name
  Metal Roofing,                          !- Layer 1
  Metal Semi-Cond Roof Insulation-5.75;   !- Layer 2

Construction,
  CBECS 1980-2004 ExtWall Mass ClimateZone 1, !- Name
  1IN Stucco,                             !- Layer 1
  8IN CONCRETE HW RefBldg,                !- Layer 2
  1/2IN Gypsum;                           !- Layer 3

Construction,
  CBECS 1980-2004 ExtWall Mass ClimateZone 2a, !- Name
  1IN Stucco,                             !- Layer 1
  8IN CONCRETE HW RefBldg,                !- Layer 2
  Mass NonRes Wall Insulation-0.52,       !- Layer 3
  1/2IN Gypsum;                           !- Layer 4

Construction,
  CBECS 1980-2004 ExtWall Mass ClimateZone 2b, !- Name
  1IN Stucco,                             !- Layer 1
  8IN CONCRETE HW RefBldg,                !- Layer 2
  Mass NonRes Wall Insulation-0.43,       !- Layer 3
  1/2IN Gypsum;                           !- Layer 4

Construction,
  CBECS 1980-2004 ExtWall Mass ClimateZone 3a, !- Name
  1IN Stucco,                             !- Layer 1
  8IN CONCRETE HW RefBldg,                !- Layer 2
  Mass NonRes Wall Insulation-0.61,       !- Layer 3
  1/2IN Gypsum;                           !- Layer 4

Construction,
  CBECS 1980-2004 ExtWall Mass ClimateZone 3b LAS, !- Name
  1IN Stucco,                             !- Layer 1
  8IN CONCRETE HW RefBldg,                !- Layer 2
  1/2IN Gypsum;                           !- Layer 3

Construction,
  CBECS 1980-2004 ExtWall Mass ClimateZone 3b LAX, !- Name
  1IN Stucco,                             !- Layer 1
  8IN CONCRETE HW RefBldg,                !- Layer 2
  Mass NonRes Wall Insulation-0.61,       !- Layer 3
  1/2IN Gypsum;                           !- Layer 4

Construction,
  CBECS 1980-2004 ExtWall Mass ClimateZone 3c, !- Name
  1IN Stucco,                             !- Layer 1
  8IN CONCRETE HW RefBldg,                !- Layer 2
  1/2IN Gypsum;                           !- Layer 3

Construction,
  CBECS 1980-2004 ExtWall Mass ClimateZone 4a, !- Name
  1IN Stucco,                             !- Layer 1
  8IN CONCRETE HW RefBldg,                !- Layer 2
  Mass NonRes Wall Insulation-1.47,       !- Layer 3
  1/2IN Gypsum;                           !- Layer 4

Construction,
  CBECS 1980-2004 ExtWall Mass ClimateZone 4b, !- Name
  1IN Stucco,                             !- Layer 1
  8IN CONCRETE HW RefBldg,                !- Layer 2
  Mass NonRes Wall Insulation-0.93,       !- Layer 3
  1/2IN Gypsum;                           !- Layer 4

Construction,
  CBECS 1980-2004 ExtWall Mass ClimateZone 4c-5a, !- Name
  1IN Stucco,                             !- Layer 1
  8IN CONCRETE HW RefBldg,                !- Layer 2
  Mass NonRes Wall Insulation-1.76,       !- Layer 3
  1/2IN Gypsum;                           !- Layer 4

Construction,
  CBECS 1980-2004 ExtWall Mass ClimateZone 5b, !- Name
  1IN Stucco,                             !- Layer 1
  8IN CONCRETE HW RefBldg,                !- Layer 2
  Mass NonRes Wall Insulation-1.26,       !- Layer 3
  1/2IN Gypsum;                           !- Layer 4

Construction,
  CBECS 1980-2004 ExtWall Mass ClimateZone 6a, !- Name
  1IN Stucco,                             !- Layer 1
  8IN CONCRETE HW RefBldg,                !- Layer 2
  Mass NonRes Wall Insulation-2.48,       !- Layer 3
  1/2IN Gypsum;                           !- Layer 4

Construction,
  CBECS 1980-2004 ExtWall Mass ClimateZone 6b, !- Name
  1IN Stucco,                             !- Layer 1
  8IN CONCRETE HW RefBldg,                !- Layer 2
  Mass NonRes Wall Insulation-2.23,       !- Layer 3
  1/2IN Gypsum;                           !- Layer 4

Construction,
  CBECS 1980-2004 ExtWall Mass ClimateZone 7, !- Name
  1IN Stucco,                             !- Layer 1
  8IN CONCRETE HW RefBldg,                !- Layer 2
  Mass NonRes Wall Insulation-2.89,       !- Layer 3
  1/2IN Gypsum;                           !- Layer 4

Construction,
  CBECS 1980-2004 ExtWall Mass ClimateZone 8, !- Name
  1IN Stucco,                             !- Layer 1
  8IN CONCRETE HW RefBldg,                !- Layer 2
  Mass NonRes Wall Insulation-3.75,       !- Layer 3
  1/2IN Gypsum;                           !- Layer 4

Construction,
  CBECS 1980-2004 ExtWall Metal ClimateZone 1, !- Name
  Metal Siding,                           !- Layer 1
  1/2IN Gypsum;                           !- Layer 2

Construction,
  CBECS 1980-2004 ExtWall Metal ClimateZone 2a, !- Name
  Metal Siding,                           !- Layer 1
  Metal Building Semi-Cond Wall Insulation-0.98, !- Layer 2
  1/2IN Gypsum;                           !- Layer 3

Construction,
  CBECS 1980-2004 ExtWall Metal ClimateZone 2b, !- Name
  Metal Siding,                           !- Layer 1
  Metal Building Semi-Cond Wall Insulation-0.54, !- Layer 2
  1/2IN Gypsum;                           !- Layer 3

Construction,
  CBECS 1980-2004 ExtWall Metal ClimateZone 3a, !- Name
  Metal Siding,                           !- Layer 1
  Metal Building Semi-Cond Wall Insulation-1.16, !- Layer 2
  1/2IN Gypsum;                           !- Layer 3

Construction,
  CBECS 1980-2004 ExtWall Metal ClimateZone 3b LAS, !- Name
  Metal Siding,                           !- Layer 1
  Metal Building Semi-Cond Wall Insulation-0.91, !- Layer 2
  1/2IN Gypsum;                           !- Layer 3

Construction,
  CBECS 1980-2004 ExtWall Metal ClimateZone 3b LAX, !- Name
  Metal Siding,                           !- Layer 1
  Metal Building Semi-Cond Wall Insulation-0.61, !- Layer 2
  1/2IN Gypsum;                           !- Layer 3

Construction,
  CBECS 1980-2004 ExtWall Metal ClimateZone 3c, !- Name
  Metal Siding,                           !- Layer 1
  Metal Building Semi-Cond Wall Insulation-1.16, !- Layer 2
  1/2IN Gypsum;                           !- Layer 3

Construction,
  CBECS 1980-2004 ExtWall Metal ClimateZone 4a, !- Name
  Metal Siding,                           !- Layer 1
  Metal Building Semi-Cond Wall Insulation-1.79, !- Layer 2
  1/2IN Gypsum;                           !- Layer 3

Construction,
  CBECS 1980-2004 ExtWall Metal ClimateZone 4b, !- Name
  Metal Siding,                           !- Layer 1
  Metal Building Semi-Cond Wall Insulation-1.57, !- Layer 2
  1/2IN Gypsum;                           !- Layer 3

Construction,
  CBECS 1980-2004 ExtWall Metal ClimateZone 4c, !- Name
  Metal Siding,                           !- Layer 1
  Metal Building Semi-Cond Wall Insulation-1.72, !- Layer 2
  1/2IN Gypsum;                           !- Layer 3

Construction,
  CBECS 1980-2004 ExtWall Metal ClimateZone 5, !- Name
  Metal Siding,                           !- Layer 1
  Metal Building Semi-Cond Wall Insulation-1.96, !- Layer 2
  1/2IN Gypsum;                           !- Layer 3

Construction,
  CBECS 1980-2004 ExtWall Metal ClimateZone 6a, !- Name
  Metal Siding,                           !- Layer 1
  Metal Building Semi-Cond Wall Insulation-2.52, !- Layer 2
  1/2IN Gypsum;                           !- Layer 3

Construction,
  CBECS 1980-2004 ExtWall Metal ClimateZone 6b, !- Name
  Metal Siding,                           !- Layer 1
  Metal Building Semi-Cond Wall Insulation-2.25, !- Layer 2
  1/2IN Gypsum;                           !- Layer 3

Construction,
  CBECS 1980-2004 ExtWall Metal ClimateZone 7, !- Name
  Metal Siding,                           !- Layer 1
  Metal Building Semi-Cond Wall Insulation-2.85, !- Layer 2
  1/2IN Gypsum;                           !- Layer 3

Construction,
  CBECS 1980-2004 ExtWall Metal ClimateZone 8, !- Name
  Metal Siding,                           !- Layer 1
  Metal Building Semi-Cond Wall Insulation-3.72, !- Layer 2
  1/2IN Gypsum;                           !- Layer 3

Construction,
  CBECS 1980-2004 ExtWall SteelFrame ClimateZone 1, !- Name
  Wood Siding,                            !- Layer 1
  1/2IN Gypsum;                           !- Layer 2

Construction,
  CBECS 1980-2004 ExtWall SteelFrame ClimateZone 2a, !- Name
  Wood Siding,                            !- Layer 1
  Steel Frame NonRes Wall Insulation-1.17, !- Layer 2
  1/2IN Gypsum;                           !- Layer 3

Construction,
  CBECS 1980-2004 ExtWall SteelFrame ClimateZone 2b, !- Name
  Wood Siding,                            !- Layer 1
  Steel Frame NonRes Wall Insulation-0.73, !- Layer 2
  1/2IN Gypsum;                           !- Layer 3

Construction,
  CBECS 1980-2004 ExtWall SteelFrame ClimateZone 3a, !- Name
  Wood Siding,                            !- Layer 1
  Steel Frame NonRes Wall Insulation-1.36, !- Layer 2
  1/2IN Gypsum;                           !- Layer 3

Construction,
  CBECS 1980-2004 ExtWall SteelFrame ClimateZone 3b LAS, !- Name
  Wood Siding,                            !- Layer 1
  Steel Frame NonRes Wall Insulation-1.10, !- Layer 2
  1/2IN Gypsum;                           !- Layer 3

Construction,
  CBECS 1980-2004 ExtWall SteelFrame ClimateZone 3b LAX, !- Name
  Wood Siding,                            !- Layer 1
  Steel Frame NonRes Wall Insulation-0.80, !- Layer 2
  1/2IN Gypsum;                           !- Layer 3

Construction,
  CBECS 1980-2004 ExtWall SteelFrame ClimateZone 3c, !- Name
  Wood Siding,                            !- Layer 1
  Steel Frame NonRes Wall Insulation-1.36, !- Layer 2
  1/2IN Gypsum;                           !- Layer 3

Construction,
  CBECS 1980-2004 ExtWall SteelFrame ClimateZone 4a, !- Name
  Wood Siding,                            !- Layer 1
  Steel Frame NonRes Wall Insulation-1.98, !- Layer 2
  1/2IN Gypsum;                           !- Layer 3

Construction,
  CBECS 1980-2004 ExtWall SteelFrame ClimateZone 4b, !- Name
  Wood Siding,                            !- Layer 1
  Steel Frame NonRes Wall Insulation-1.76, !- Layer 2
  1/2IN Gypsum;                           !- Layer 3

Construction,
  CBECS 1980-2004 ExtWall SteelFrame ClimateZone 4c, !- Name
  Wood Siding,                            !- Layer 1
  Steel Frame NonRes Wall Insulation-1.92, !- Layer 2
  1/2IN Gypsum;                           !- Layer 3

Construction,
  CBECS 1980-2004 ExtWall SteelFrame ClimateZone 5, !- Name
  Wood Siding,                            !- Layer 1
  Steel Frame NonRes Wall Insulation-2.15, !- Layer 2
  1/2IN Gypsum;                           !- Layer 3

Construction,
  CBECS 1980-2004 ExtWall SteelFrame ClimateZone 6a, !- Name
  Wood Siding,                            !- Layer 1
  Steel Frame NonRes Wall Insulation-2.71, !- Layer 2
  1/2IN Gypsum;                           !- Layer 3

Construction,
  CBECS 1980-2004 ExtWall SteelFrame ClimateZone 6b, !- Name
  Wood Siding,                            !- Layer 1
  Steel Frame NonRes Wall Insulation-2.44, !- Layer 2
  1/2IN Gypsum;                           !- Layer 3

Construction,
  CBECS 1980-2004 ExtWall SteelFrame ClimateZone 7, !- Name
  Wood Siding,                            !- Layer 1
  Steel Frame NonRes Wall Insulation-3.04, !- Layer 2
  1/2IN Gypsum;                           !- Layer 3

Construction,
  CBECS 1980-2004 ExtWall SteelFrame ClimateZone 8, !- Name
  Wood Siding,                            !- Layer 1
  Steel Frame NonRes Wall Insulation-3.91, !- Layer 2
  1/2IN Gypsum;                           !- Layer 3

Construction,
  CBECS 1980-2004 ExtWall WoodFrame ClimateZone 1, !- Name
  Wood Siding,                            !- Layer 1
  1/2IN Gypsum;                           !- Layer 2

Construction,
  CBECS 1980-2004 ExtWall WoodFrame ClimateZone 2a, !- Name
  Wood Siding,                            !- Layer 1
  Wood Frame NonRes Wall Insulation-1.17, !- Layer 2
  1/2IN Gypsum;                           !- Layer 3

Construction,
  CBECS 1980-2004 ExtWall WoodFrame ClimateZone 2b, !- Name
  Wood Siding,                            !- Layer 1
  Wood Frame NonRes Wall Insulation-0.73, !- Layer 2
  1/2IN Gypsum;                           !- Layer 3

Construction,
  CBECS 1980-2004 ExtWall WoodFrame ClimateZone 3a, !- Name
  Wood Siding,                            !- Layer 1
  Wood Frame NonRes Wall Insulation-1.36, !- Layer 2
  1/2IN Gypsum;                           !- Layer 3

Construction,
  CBECS 1980-2004 ExtWall WoodFrame ClimateZone 3b LAS, !- Name
  Wood Siding,                            !- Layer 1
  Wood Frame NonRes Wall Insulation-1.10, !- Layer 2
  1/2IN Gypsum;                           !- Layer 3

Construction,
  CBECS 1980-2004 ExtWall WoodFrame ClimateZone 3b LAX, !- Name
  Wood Siding,                            !- Layer 1
  Wood Frame NonRes Wall Insulation-0.80, !- Layer 2
  1/2IN Gypsum;                           !- Layer 3

Construction,
  CBECS 1980-2004 ExtWall WoodFrame ClimateZone 3c, !- Name
  Wood Siding,                            !- Layer 1
  Wood Frame NonRes Wall Insulation-1.36, !- Layer 2
  1/2IN Gypsum;                           !- Layer 3

Construction,
  CBECS 1980-2004 ExtWall WoodFrame ClimateZone 4a, !- Name
  Wood Siding,                            !- Layer 1
  Wood Frame NonRes Wall Insulation-1.98, !- Layer 2
  1/2IN Gypsum;                           !- Layer 3

Construction,
  CBECS 1980-2004 ExtWall WoodFrame ClimateZone 4b, !- Name
  Wood Siding,                            !- Layer 1
  Wood Frame NonRes Wall Insulation-1.76, !- Layer 2
  1/2IN Gypsum;                           !- Layer 3

Construction,
  CBECS 1980-2004 ExtWall WoodFrame ClimateZone 4c, !- Name
  Wood Siding,                            !- Layer 1
  Wood Frame NonRes Wall Insulation-1.92, !- Layer 2
  1/2IN Gypsum;                           !- Layer 3

Construction,
  CBECS 1980-2004 ExtWall WoodFrame ClimateZone 5, !- Name
  Wood Siding,                            !- Layer 1
  Wood Frame NonRes Wall Insulation-2.15, !- Layer 2
  1/2IN Gypsum;                           !- Layer 3

Construction,
  CBECS 1980-2004 ExtWall WoodFrame ClimateZone 6a, !- Name
  Wood Siding,                            !- Layer 1
  Wood Frame NonRes Wall Insulation-2.71, !- Layer 2
  1/2IN Gypsum;                           !- Layer 3

Construction,
  CBECS 1980-2004 ExtWall WoodFrame ClimateZone 6b, !- Name
  Wood Siding,                            !- Layer 1
  Wood Frame NonRes Wall Insulation-2.44, !- Layer 2
  1/2IN Gypsum;                           !- Layer 3

Construction,
  CBECS 1980-2004 ExtWall WoodFrame ClimateZone 7, !- Name
  Wood Siding,                            !- Layer 1
  Wood Frame NonRes Wall Insulation-3.04, !- Layer 2
  1/2IN Gypsum;                           !- Layer 3

Construction,
  CBECS 1980-2004 ExtWall WoodFrame ClimateZone 8, !- Name
  Wood Siding,                            !- Layer 1
  Wood Frame NonRes Wall Insulation-3.91, !- Layer 2
  1/2IN Gypsum;                           !- Layer 3

Construction,
  CBECS 1980-2004 ExtWindow ClimateZone 1-2, !- Name
  Fixed Window 5.84/0.25/0.11;            !- Layer 1

Construction,
  CBECS 1980-2004 ExtWindow ClimateZone 3a, !- Name
  Fixed Window 4.09/0.26/0.13;            !- Layer 1

Construction,
  CBECS 1980-2004 ExtWindow ClimateZone 3b LAS, !- Name
  Fixed Window 5.84/0.25/0.11;            !- Layer 1

Construction,
  CBECS 1980-2004 ExtWindow ClimateZone 3b LAX, !- Name
  Fixed Window 5.84/0.44/0.27;            !- Layer 1

Construction,
  CBECS 1980-2004 ExtWindow ClimateZone 3c, !- Name
  Fixed Window 4.09/0.39/0.25;            !- Layer 1

Construction,
  CBECS 1980-2004 ExtWindow ClimateZone 4a, !- Name
  Fixed Window 3.35/0.36/0.27;            !- Layer 1

Construction,
  CBECS 1980-2004 ExtWindow ClimateZone 4b, !- Name
  Fixed Window 4.09/0.36/0.23;            !- Layer 1

Construction,
  CBECS 1980-2004 ExtWindow ClimateZone 4c, !- Name
  Fixed Window 4.09/0.39/0.25;            !- Layer 1

Construction,
  CBECS 1980-2004 ExtWindow ClimateZone 5, !- Name
  Fixed Window 3.35/0.39/0.31;            !- Layer 1

Construction,
  CBECS 1980-2004 ExtWindow ClimateZone 6, !- Name
  Fixed Window 2.96/0.39/0.31;            !- Layer 1

Construction,
  CBECS 1980-2004 ExtWindow ClimateZone 7, !- Name
  Fixed Window 2.96/0.49/0.41;            !- Layer 1

Construction,
  CBECS 1980-2004 ExtWindow ClimateZone 8, !- Name
  Fixed Window 2.96/0.62/0.54;            !- Layer 1

Construction,
  CBECS 1980-2004 ExtWindow ClimateZone alt-lrgoff hosp 1-8, !- Name
  Fixed Window 5.84/0.25/0.11;            !- Layer 1

Construction,
  CBECS Before-1980 ExtRoof AtticFloor ClimateZone 1-3, !- Name
  1/2IN Gypsum,                           !- Layer 1
  AtticFloor NonRes Insulation-1.76,      !- Layer 2
  1/2IN Gypsum;                           !- Layer 3

Construction,
  CBECS Before-1980 ExtRoof AtticFloor ClimateZone 4a, !- Name
  1/2IN Gypsum,                           !- Layer 1
  AtticFloor Res Insulation-2.05,         !- Layer 2
  1/2IN Gypsum;                           !- Layer 3

Construction,
  CBECS Before-1980 ExtRoof AtticFloor ClimateZone 4b, !- Name
  1/2IN Gypsum,                           !- Layer 1
  IEAD NonRes Roof Insulation-1.98,       !- Layer 2
  1/2IN Gypsum;                           !- Layer 3

Construction,
  CBECS Before-1980 ExtRoof AtticFloor ClimateZone 4c, !- Name
  1/2IN Gypsum,                           !- Layer 1
  IEAD NonRes Roof Insulation-2.07,       !- Layer 2
  1/2IN Gypsum;                           !- Layer 3

Construction,
  CBECS Before-1980 ExtRoof AtticFloor ClimateZone 5a, !- Name
  1/2IN Gypsum,                           !- Layer 1
  IEAD NonRes Roof Insulation-2.50,       !- Layer 2
  1/2IN Gypsum;                           !- Layer 3

Construction,
  CBECS Before-1980 ExtRoof AtticFloor ClimateZone 5b, !- Name
  1/2IN Gypsum,                           !- Layer 1
  AtticFloor Res Insulation-2.37,         !- Layer 2
  1/2IN Gypsum;                           !- Layer 3

Construction,
  CBECS Before-1980 ExtRoof AtticFloor ClimateZone 6, !- Name
  1/2IN Gypsum,                           !- Layer 1
  AtticFloor NonRes Insulation-2.99,      !- Layer 2
  1/2IN Gypsum;                           !- Layer 3

Construction,
  CBECS Before-1980 ExtRoof AtticFloor ClimateZone 7, !- Name
  1/2IN Gypsum,                           !- Layer 1
  AtticFloor Res Insulation-2.93,         !- Layer 2
  1/2IN Gypsum;                           !- Layer 3

Construction,
  CBECS Before-1980 ExtRoof AtticFloor ClimateZone 8, !- Name
  1/2IN Gypsum,                           !- Layer 1
  AtticFloor NonRes Insulation-2.99,      !- Layer 2
  1/2IN Gypsum;                           !- Layer 3

Construction,
  CBECS Before-1980 ExtRoof IEAD ClimateZone 1-3, !- Name
  Roof Membrane,                          !- Layer 1
  IEAD NonRes Roof Insulation-1.76,       !- Layer 2
  Metal Decking;                          !- Layer 3

Construction,
  CBECS Before-1980 ExtRoof IEAD ClimateZone 4a, !- Name
  Roof Membrane,                          !- Layer 1
  IEAD NonRes Roof Insulation-2.04,       !- Layer 2
  Metal Decking;                          !- Layer 3

Construction,
  CBECS Before-1980 ExtRoof IEAD ClimateZone 4b, !- Name
  Roof Membrane,                          !- Layer 1
  IEAD NonRes Roof Insulation-1.98,       !- Layer 2
  Metal Decking;                          !- Layer 3

Construction,
  CBECS Before-1980 ExtRoof IEAD ClimateZone 4c, !- Name
  Roof Membrane,                          !- Layer 1
  IEAD NonRes Roof Insulation-2.07,       !- Layer 2
  Metal Decking;                          !- Layer 3

Construction,
  CBECS Before-1980 ExtRoof IEAD ClimateZone 5a, !- Name
  Roof Membrane,                          !- Layer 1
  IEAD NonRes Roof Insulation-2.50,       !- Layer 2
  Metal Decking;                          !- Layer 3

Construction,
  CBECS Before-1980 ExtRoof IEAD ClimateZone 5b, !- Name
  Roof Membrane,                          !- Layer 1
  IEAD NonRes Roof Insulation-2.37,       !- Layer 2
  Metal Decking;                          !- Layer 3

Construction,
  CBECS Before-1980 ExtRoof IEAD ClimateZone 6, !- Name
  Roof Membrane,                          !- Layer 1
  IEAD NonRes Roof Insulation-2.99,       !- Layer 2
  Metal Decking;                          !- Layer 3

Construction,
  CBECS Before-1980 ExtRoof IEAD ClimateZone 7, !- Name
  Roof Membrane,                          !- Layer 1
  IEAD NonRes Roof Insulation-2.93,       !- Layer 2
  Metal Decking;                          !- Layer 3

Construction,
  CBECS Before-1980 ExtRoof IEAD ClimateZone 8, !- Name
  Roof Membrane,                          !- Layer 1
  IEAD NonRes Roof Insulation-2.99,       !- Layer 2
  Metal Decking;                          !- Layer 3

Construction,
  CBECS Before-1980 ExtWall Mass ClimateZone 1-2, !- Name
  1IN Stucco,                             !- Layer 1
  8IN CONCRETE HW RefBldg,                !- Layer 2
  Mass NonRes Wall Insulation-0.77,       !- Layer 3
  1/2IN Gypsum;                           !- Layer 4

Construction,
  CBECS Before-1980 ExtWall Mass ClimateZone 3a, !- Name
  1IN Stucco,                             !- Layer 1
  8IN CONCRETE HW RefBldg,                !- Layer 2
  Mass NonRes Wall Insulation-0.78,       !- Layer 3
  1/2IN Gypsum;                           !- Layer 4

Construction,
  CBECS Before-1980 ExtWall Mass ClimateZone 3b, !- Name
  1IN Stucco,                             !- Layer 1
  8IN CONCRETE HW RefBldg,                !- Layer 2
  Mass NonRes Wall Insulation-0.77,       !- Layer 3
  1/2IN Gypsum;                           !- Layer 4

Construction,
  CBECS Before-1980 ExtWall Mass ClimateZone 3c, !- Name
  1IN Stucco,                             !- Layer 1
  8IN CONCRETE HW RefBldg,                !- Layer 2
  Mass NonRes Wall Insulation-0.79,       !- Layer 3
  1/2IN Gypsum;                           !- Layer 4

Construction,
  CBECS Before-1980 ExtWall Mass ClimateZone 4a, !- Name
  1IN Stucco,                             !- Layer 1
  8IN CONCRETE HW RefBldg,                !- Layer 2
  Mass NonRes Wall Insulation-0.99,       !- Layer 3
  1/2IN Gypsum;                           !- Layer 4

Construction,
  CBECS Before-1980 ExtWall Mass ClimateZone 4b, !- Name
  1IN Stucco,                             !- Layer 1
  8IN CONCRETE HW RefBldg,                !- Layer 2
  Mass NonRes Wall Insulation-0.96,       !- Layer 3
  1/2IN Gypsum;                           !- Layer 4

Construction,
  CBECS Before-1980 ExtWall Mass ClimateZone 4c, !- Name
  1IN Stucco,                             !- Layer 1
  8IN CONCRETE HW RefBldg,                !- Layer 2
  Mass NonRes Wall Insulation-1.01,       !- Layer 3
  1/2IN Gypsum;                           !- Layer 4

Construction,
  CBECS Before-1980 ExtWall Mass ClimateZone 5a, !- Name
  1IN Stucco,                             !- Layer 1
  8IN CONCRETE HW RefBldg,                !- Layer 2
  Mass NonRes Wall Insulation-1.13,       !- Layer 3
  1/2IN Gypsum;                           !- Layer 4

Construction,
  CBECS Before-1980 ExtWall Mass ClimateZone 5b, !- Name
  1IN Stucco,                             !- Layer 1
  8IN CONCRETE HW RefBldg,                !- Layer 2
  Mass NonRes Wall Insulation-1.09,       !- Layer 3
  1/2IN Gypsum;                           !- Layer 4

Construction,
  CBECS Before-1980 ExtWall Mass ClimateZone 6, !- Name
  1IN Stucco,                             !- Layer 1
  8IN CONCRETE HW RefBldg,                !- Layer 2
  Mass NonRes Wall Insulation-1.22,       !- Layer 3
  1/2IN Gypsum;                           !- Layer 4

Construction,
  CBECS Before-1980 ExtWall Mass ClimateZone 7, !- Name
  1IN Stucco,                             !- Layer 1
  8IN CONCRETE HW RefBldg,                !- Layer 2
  Mass NonRes Wall Insulation-1.30,       !- Layer 3
  1/2IN Gypsum;                           !- Layer 4

Construction,
  CBECS Before-1980 ExtWall Mass ClimateZone 8, !- Name
  1IN Stucco,                             !- Layer 1
  8IN CONCRETE HW RefBldg,                !- Layer 2
  Mass NonRes Wall Insulation-1.41,       !- Layer 3
  1/2IN Gypsum;                           !- Layer 4

Construction,
  CBECS Before-1980 ExtWall Metal ClimateZone 1-2, !- Name
  Metal Siding,                           !- Layer 1
  Metal Building Semi-Cond Wall Insulation-0.57, !- Layer 2
  1/2IN Gypsum;                           !- Layer 3

Construction,
  CBECS Before-1980 ExtWall Metal ClimateZone 3a, !- Name
  Metal Siding,                           !- Layer 1
  Metal Building Semi-Cond Wall Insulation-0.59, !- Layer 2
  1/2IN Gypsum;                           !- Layer 3

Construction,
  CBECS Before-1980 ExtWall Metal ClimateZone 3b, !- Name
  Metal Siding,                           !- Layer 1
  Metal Building Semi-Cond Wall Insulation-0.57, !- Layer 2
  1/2IN Gypsum;                           !- Layer 3

Construction,
  CBECS Before-1980 ExtWall Metal ClimateZone 3c, !- Name
  Metal Siding,                           !- Layer 1
  Metal Building Semi-Cond Wall Insulation-0.59, !- Layer 2
  1/2IN Gypsum;                           !- Layer 3

Construction,
  CBECS Before-1980 ExtWall Metal ClimateZone 4a, !- Name
  Metal Siding,                           !- Layer 1
  Metal Building Semi-Cond Wall Insulation-0.80, !- Layer 2
  1/2IN Gypsum;                           !- Layer 3

Construction,
  CBECS Before-1980 ExtWall Metal ClimateZone 4b, !- Name
  Metal Siding,                           !- Layer 1
  Metal Building Semi-Cond Wall Insulation-0.77, !- Layer 2
  1/2IN Gypsum;                           !- Layer 3

Construction,
  CBECS Before-1980 ExtWall Metal ClimateZone 4c, !- Name
  Metal Siding,                           !- Layer 1
  Metal Building Semi-Cond Wall Insulation-0.81, !- Layer 2
  1/2IN Gypsum;                           !- Layer 3

Construction,
  CBECS Before-1980 ExtWall Metal ClimateZone 5a, !- Name
  Metal Siding,                           !- Layer 1
  Metal Building Semi-Cond Wall Insulation-0.94, !- Layer 2
  1/2IN Gypsum;                           !- Layer 3

Construction,
  CBECS Before-1980 ExtWall Metal ClimateZone 5b, !- Name
  Metal Siding,                           !- Layer 1
  Metal Building Semi-Cond Wall Insulation-0.90, !- Layer 2
  1/2IN Gypsum;                           !- Layer 3

Construction,
  CBECS Before-1980 ExtWall Metal ClimateZone 6, !- Name
  Metal Siding,                           !- Layer 1
  Metal Building Semi-Cond Wall Insulation-1.02, !- Layer 2
  1/2IN Gypsum;                           !- Layer 3

Construction,
  CBECS Before-1980 ExtWall Metal ClimateZone 7, !- Name
  Metal Siding,                           !- Layer 1
  Metal Building Semi-Cond Wall Insulation-1.10, !- Layer 2
  1/2IN Gypsum;                           !- Layer 3

Construction,
  CBECS Before-1980 ExtWall Metal ClimateZone 8, !- Name
  Metal Siding,                           !- Layer 1
  Metal Building Semi-Cond Wall Insulation-1.22, !- Layer 2
  1/2IN Gypsum;                           !- Layer 3

Construction,
  CBECS Before-1980 ExtWall SteelFrame ClimateZone 1-3b, !- Name
  Wood Siding,                            !- Layer 1
  Steel Frame NonRes Wall Insulation-0.77, !- Layer 2
  1/2IN Gypsum;                           !- Layer 3

Construction,
  CBECS Before-1980 ExtWall SteelFrame ClimateZone 3c, !- Name
  Wood Siding,                            !- Layer 1
  Steel Frame NonRes Wall Insulation-0.79, !- Layer 2
  1/2IN Gypsum;                           !- Layer 3

Construction,
  CBECS Before-1980 ExtWall SteelFrame ClimateZone 4a, !- Name
  Wood Siding,                            !- Layer 1
  Steel Frame NonRes Wall Insulation-0.99, !- Layer 2
  1/2IN Gypsum;                           !- Layer 3

Construction,
  CBECS Before-1980 ExtWall SteelFrame ClimateZone 4b, !- Name
  Wood Siding,                            !- Layer 1
  Steel Frame NonRes Wall Insulation-0.96, !- Layer 2
  1/2IN Gypsum;                           !- Layer 3

Construction,
  CBECS Before-1980 ExtWall SteelFrame ClimateZone 4c, !- Name
  Wood Siding,                            !- Layer 1
  Steel Frame NonRes Wall Insulation-1.01, !- Layer 2
  1/2IN Gypsum;                           !- Layer 3

Construction,
  CBECS Before-1980 ExtWall SteelFrame ClimateZone 5a, !- Name
  Wood Siding,                            !- Layer 1
  Steel Frame NonRes Wall Insulation-1.13, !- Layer 2
  1/2IN Gypsum;                           !- Layer 3

Construction,
  CBECS Before-1980 ExtWall SteelFrame ClimateZone 5b, !- Name
  Wood Siding,                            !- Layer 1
  Steel Frame NonRes Wall Insulation-1.09, !- Layer 2
  1/2IN Gypsum;                           !- Layer 3

Construction,
  CBECS Before-1980 ExtWall SteelFrame ClimateZone 6, !- Name
  Wood Siding,                            !- Layer 1
  Steel Frame NonRes Wall Insulation-1.22, !- Layer 2
  1/2IN Gypsum;                           !- Layer 3

Construction,
  CBECS Before-1980 ExtWall SteelFrame ClimateZone 7, !- Name
  Wood Siding,                            !- Layer 1
  Steel Frame NonRes Wall Insulation-1.30, !- Layer 2
  1/2IN Gypsum;                           !- Layer 3

Construction,
  CBECS Before-1980 ExtWall SteelFrame ClimateZone 8, !- Name
  Wood Siding,                            !- Layer 1
  Steel Frame NonRes Wall Insulation-1.41, !- Layer 2
  1/2IN Gypsum;                           !- Layer 3

Construction,
  CBECS Before-1980 ExtWindow ClimateZone 1-4, !- Name
  Fixed Window 5.84/0.54/0.38;            !- Layer 1

Construction,
  CBECS Before-1980 ExtWindow ClimateZone 5-8, !- Name
  Fixed Window 3.53/0.41/0.32;            !- Layer 1

Construction,
  CBECS Before-1980 ExtWindow ClimateZone alt-lrgoff hosp 1-8, !- Name
  Fixed Window 5.84/0.54/0.38;            !- Layer 1

Construction:AirBoundary,
  Air Wall,                               !- Name
  None,                                   !- Air Exchange Method
  0,                                      !- Simple Mixing Air Changes per Hour {1/hr}
  ;                                       !- Simple Mixing Schedule Name

Schedule:Constant,
  Always On Discrete,                     !- Name
  Always On Discrete Limits,              !- Schedule Type Limits Name
  1;                                      !- Hourly Value

Schedule:Constant,
  Always Off Discrete,                    !- Name
  OnOff,                                  !- Schedule Type Limits Name
  0;                                      !- Hourly Value

Schedule:Constant,
  Always On Continuous,                   !- Name
  Fractional 1,                           !- Schedule Type Limits Name
  1;                                      !- Hourly Value

ScheduleTypeLimits,
  Always On Discrete Limits,              !- Name
  0,                                      !- Lower Limit Value {BasedOnField A3}
  1,                                      !- Upper Limit Value {BasedOnField A3}
  Discrete,                               !- Numeric Type
  availability;                           !- Unit Type

ScheduleTypeLimits,
  Any Number;                             !- Name

ScheduleTypeLimits,
  Control Type,                           !- Name
  0,                                      !- Lower Limit Value {BasedOnField A3}
  4,                                      !- Upper Limit Value {BasedOnField A3}
  DISCRETE;                               !- Numeric Type

ScheduleTypeLimits,
  Fraction,                               !- Name
  0,                                      !- Lower Limit Value {BasedOnField A3}
  1,                                      !- Upper Limit Value {BasedOnField A3}
  CONTINUOUS;                             !- Numeric Type

ScheduleTypeLimits,
  Fractional 1,                           !- Name
  0,                                      !- Lower Limit Value {BasedOnField A3}
  1,                                      !- Upper Limit Value {BasedOnField A3}
  Continuous;                             !- Numeric Type

ScheduleTypeLimits,
  On/Off,                                 !- Name
  0,                                      !- Lower Limit Value {BasedOnField A3}
  1,                                      !- Upper Limit Value {BasedOnField A3}
  DISCRETE;                               !- Numeric Type

ScheduleTypeLimits,
  OnOff,                                  !- Name
  0,                                      !- Lower Limit Value {BasedOnField A3}
  1,                                      !- Upper Limit Value {BasedOnField A3}
  Discrete,                               !- Numeric Type
  availability;                           !- Unit Type

ScheduleTypeLimits,
  Temperature,                            !- Name
  -60,                                    !- Lower Limit Value {BasedOnField A3}
  200,                                    !- Upper Limit Value {BasedOnField A3}
  CONTINUOUS;                             !- Numeric Type

Schedule:Day:Interval,
  Always Off Default Schedule,            !- Name
  On/Off,                                 !- Schedule Type Limits Name
  No,                                     !- Interpolate to Timestep
  24:00,                                  !- Time 1 {hh:mm}
  0;                                      !- Value Until Time 1

Schedule:Day:Interval,
  Always Off Summer Design Day,           !- Name
  On/Off,                                 !- Schedule Type Limits Name
  No,                                     !- Interpolate to Timestep
  24:00,                                  !- Time 1 {hh:mm}
  0;                                      !- Value Until Time 1

Schedule:Day:Interval,
  Always Off Winter Design Day,           !- Name
  On/Off,                                 !- Schedule Type Limits Name
  No,                                     !- Interpolate to Timestep
  24:00,                                  !- Time 1 {hh:mm}
  0;                                      !- Value Until Time 1

Schedule:Day:Interval,
  Always On Default Schedule,             !- Name
  Fractional,                             !- Schedule Type Limits Name
  No,                                     !- Interpolate to Timestep
  24:00,                                  !- Time 1 {hh:mm}
  1;                                      !- Value Until Time 1

Schedule:Day:Interval,
  Always On Summer Design Day,            !- Name
  Fractional,                             !- Schedule Type Limits Name
  No,                                     !- Interpolate to Timestep
  24:00,                                  !- Time 1 {hh:mm}
  1;                                      !- Value Until Time 1

Schedule:Day:Interval,
  Always On Winter Design Day,            !- Name
  Fractional,                             !- Schedule Type Limits Name
  No,                                     !- Interpolate to Timestep
  24:00,                                  !- Time 1 {hh:mm}
  1;                                      !- Value Until Time 1

Schedule:Day:Interval,
  Small Office Infil Quarter On Default Schedule, !- Name
  Fractional,                             !- Schedule Type Limits Name
  No,                                     !- Interpolate to Timestep
  06:00,                                  !- Time 1 {hh:mm}
  1,                                      !- Value Until Time 1
  22:00,                                  !- Time 2 {hh:mm}
  0.25,                                   !- Value Until Time 2
  24:00,                                  !- Time 3 {hh:mm}
  1;                                      !- Value Until Time 3

Schedule:Day:Interval,
  Small Office Infil Quarter On Rule 1 Day Schedule, !- Name
  Fractional,                             !- Schedule Type Limits Name
  No,                                     !- Interpolate to Timestep
  24:00,                                  !- Time 1 {hh:mm}
  1;                                      !- Value Until Time 1

Schedule:Day:Interval,
  Small Office Infil Quarter On Rule 2 Day Schedule, !- Name
  Fractional,                             !- Schedule Type Limits Name
  No,                                     !- Interpolate to Timestep
  06:00,                                  !- Time 1 {hh:mm}
  1,                                      !- Value Until Time 1
  18:00,                                  !- Time 2 {hh:mm}
  0.25,                                   !- Value Until Time 2
  24:00,                                  !- Time 3 {hh:mm}
  1;                                      !- Value Until Time 3

Schedule:Day:Interval,
  Small Office Infil Quarter On Summer Design Day, !- Name
  Fractional,                             !- Schedule Type Limits Name
  No,                                     !- Interpolate to Timestep
  06:00,                                  !- Time 1 {hh:mm}
  1,                                      !- Value Until Time 1
  22:00,                                  !- Time 2 {hh:mm}
  0.25,                                   !- Value Until Time 2
  24:00,                                  !- Time 3 {hh:mm}
  1;                                      !- Value Until Time 3

Schedule:Day:Interval,
  Small Office Infil Quarter On Winter Design Day, !- Name
  Fractional,                             !- Schedule Type Limits Name
  No,                                     !- Interpolate to Timestep
  06:00,                                  !- Time 1 {hh:mm}
  1,                                      !- Value Until Time 1
  18:00,                                  !- Time 2 {hh:mm}
  0.25,                                   !- Value Until Time 2
  24:00,                                  !- Time 3 {hh:mm}
  1;                                      !- Value Until Time 3

Schedule:Week:Daily,
  Always Off Week Rule - Jan1-Dec31,      !- Name
  Always Off Default Schedule,            !- Sunday Schedule:Day Name
  Always Off Default Schedule,            !- Monday Schedule:Day Name
  Always Off Default Schedule,            !- Tuesday Schedule:Day Name
  Always Off Default Schedule,            !- Wednesday Schedule:Day Name
  Always Off Default Schedule,            !- Thursday Schedule:Day Name
  Always Off Default Schedule,            !- Friday Schedule:Day Name
  Always Off Default Schedule,            !- Saturday Schedule:Day Name
  Always Off Default Schedule,            !- Holiday Schedule:Day Name
  Always Off Summer Design Day,           !- SummerDesignDay Schedule:Day Name
  Always Off Winter Design Day,           !- WinterDesignDay Schedule:Day Name
  Always Off Default Schedule,            !- CustomDay1 Schedule:Day Name
  Always Off Default Schedule;            !- CustomDay2 Schedule:Day Name

Schedule:Year,
  Always Off,                             !- Name
  On/Off,                                 !- Schedule Type Limits Name
  Always Off Week Rule - Jan1-Dec31,      !- Schedule:Week Name 1
  1,                                      !- Start Month 1
  1,                                      !- Start Day 1
  12,                                     !- End Month 1
  31;                                     !- End Day 1

Schedule:Week:Daily,
  Always On Week Rule - Jan1-Dec31,       !- Name
  Always On Default Schedule,             !- Sunday Schedule:Day Name
  Always On Default Schedule,             !- Monday Schedule:Day Name
  Always On Default Schedule,             !- Tuesday Schedule:Day Name
  Always On Default Schedule,             !- Wednesday Schedule:Day Name
  Always On Default Schedule,             !- Thursday Schedule:Day Name
  Always On Default Schedule,             !- Friday Schedule:Day Name
  Always On Default Schedule,             !- Saturday Schedule:Day Name
  Always On Default Schedule,             !- Holiday Schedule:Day Name
  Always On Summer Design Day,            !- SummerDesignDay Schedule:Day Name
  Always On Winter Design Day,            !- WinterDesignDay Schedule:Day Name
  Always On Default Schedule,             !- CustomDay1 Schedule:Day Name
  Always On Default Schedule;             !- CustomDay2 Schedule:Day Name

Schedule:Year,
  Always On,                              !- Name
  Fractional,                             !- Schedule Type Limits Name
  Always On Week Rule - Jan1-Dec31,       !- Schedule:Week Name 1
  1,                                      !- Start Month 1
  1,                                      !- Start Day 1
  12,                                     !- End Month 1
  31;                                     !- End Day 1

Schedule:Week:Daily,
  Small Office Infil Quarter On Week Rule - Jan1-Dec31, !- Name
  Small Office Infil Quarter On Rule 1 Day Schedule, !- Sunday Schedule:Day Name
  Small Office Infil Quarter On Default Schedule, !- Monday Schedule:Day Name
  Small Office Infil Quarter On Default Schedule, !- Tuesday Schedule:Day Name
  Small Office Infil Quarter On Default Schedule, !- Wednesday Schedule:Day Name
  Small Office Infil Quarter On Default Schedule, !- Thursday Schedule:Day Name
  Small Office Infil Quarter On Default Schedule, !- Friday Schedule:Day Name
  Small Office Infil Quarter On Rule 2 Day Schedule, !- Saturday Schedule:Day Name
  Small Office Infil Quarter On Default Schedule, !- Holiday Schedule:Day Name
  Small Office Infil Quarter On Summer Design Day, !- SummerDesignDay Schedule:Day Name
  Small Office Infil Quarter On Winter Design Day, !- WinterDesignDay Schedule:Day Name
  Small Office Infil Quarter On Default Schedule, !- CustomDay1 Schedule:Day Name
  Small Office Infil Quarter On Default Schedule; !- CustomDay2 Schedule:Day Name

Schedule:Year,
  Small Office Infil Quarter On,          !- Name
  Fractional,                             !- Schedule Type Limits Name
  Small Office Infil Quarter On Week Rule - Jan1-Dec31, !- Schedule:Week Name 1
  1,                                      !- Start Month 1
  1,                                      !- Start Day 1
  12,                                     !- End Month 1
  31;                                     !- End Day 1

OutdoorAir:Node,
  Model Outdoor Air Node;                 !- Name

RunPeriodControl:DaylightSavingTime,
  2nd Sunday in March,                    !- Start Date
  1st Sunday in November;                 !- End Date

RunPeriodControl:SpecialDays,
  Christmas,                              !- Name
  December 25,                            !- Start Date
  1,                                      !- Duration {days}
  Holiday;                                !- Special Day Type

RunPeriodControl:SpecialDays,
  Columbus Day,                           !- Name
  2nd Monday in October,                  !- Start Date
  1,                                      !- Duration {days}
  Holiday;                                !- Special Day Type

RunPeriodControl:SpecialDays,
  Independence Day,                       !- Name
  July 4,                                 !- Start Date
  1,                                      !- Duration {days}
  Holiday;                                !- Special Day Type

RunPeriodControl:SpecialDays,
  Labor Day,                              !- Name
  1st Monday in September,                !- Start Date
  1,                                      !- Duration {days}
  Holiday;                                !- Special Day Type

RunPeriodControl:SpecialDays,
  Memorial Day,                           !- Name
  Last Monday in May,                     !- Start Date
  1,                                      !- Duration {days}
  Holiday;                                !- Special Day Type

RunPeriodControl:SpecialDays,
  MLK Day,                                !- Name
  3rd Monday in January,                  !- Start Date
  1,                                      !- Duration {days}
  Holiday;                                !- Special Day Type

RunPeriodControl:SpecialDays,
  New Years Day,                          !- Name
  January 1,                              !- Start Date
  1,                                      !- Duration {days}
  Holiday;                                !- Special Day Type

RunPeriodControl:SpecialDays,
  Presidents Day,                         !- Name
  3rd Monday in February,                 !- Start Date
  1,                                      !- Duration {days}
  Holiday;                                !- Special Day Type

RunPeriodControl:SpecialDays,
  Thanksgiving,                           !- Name
  4th Thursday in November,               !- Start Date
  1,                                      !- Duration {days}
  Holiday;                                !- Special Day Type

RunPeriodControl:SpecialDays,
  Veterans Day,                           !- Name
  November 11,                            !- Start Date
  1,                                      !- Duration {days}
  Holiday;                                !- Special Day Type

OutputControl:ReportingTolerances,
  0.2,                                    !- Tolerance for Time Heating Setpoint Not Met {deltaC}
  0.2;                                    !- Tolerance for Time Cooling Setpoint Not Met {deltaC}

Site:Location,
  Toronto Intl AP_ON_CAN,                 !- Name
  43.68,                                  !- Latitude {deg}
  -79.63,                                 !- Longitude {deg}
  -5,                                     !- Time Zone {hr}
  173.4;                                  !- Elevation {m}

Site:GroundTemperature:Deep,
  3.7,                                    !- January Deep Ground Temperature {C}
  3.3,                                    !- February Deep Ground Temperature {C}
  4.4,                                    !- March Deep Ground Temperature {C}
  5.9,                                    !- April Deep Ground Temperature {C}
  9.7,                                    !- May Deep Ground Temperature {C}
  12.5,                                   !- June Deep Ground Temperature {C}
  14.4,                                   !- July Deep Ground Temperature {C}
  14.8,                                   !- August Deep Ground Temperature {C}
  13.7,                                   !- September Deep Ground Temperature {C}
  11.3,                                   !- October Deep Ground Temperature {C}
  8.3,                                    !- November Deep Ground Temperature {C}
  5.6;                                    !- December Deep Ground Temperature {C}

Site:GroundTemperature:FCfactorMethod,
  10.8,                                   !- January Ground Temperature {C}
  4,                                      !- February Ground Temperature {C}
  -2.5,                                   !- March Ground Temperature {C}
  -2.7,                                   !- April Ground Temperature {C}
  -3.6,                                   !- May Ground Temperature {C}
  0.4,                                    !- June Ground Temperature {C}
  7.7,                                    !- July Ground Temperature {C}
  14.6,                                   !- August Ground Temperature {C}
  19.4,                                   !- September Ground Temperature {C}
  21.6,                                   !- October Ground Temperature {C}
  20.9,                                   !- November Ground Temperature {C}
  18.2;                                   !- December Ground Temperature {C}

Site:GroundTemperature:Shallow,
  -2.3,                                   !- January Surface Ground Temperature {C}
  -0.2,                                   !- February Surface Ground Temperature {C}
  4,                                      !- March Surface Ground Temperature {C}
  8,                                      !- April Surface Ground Temperature {C}
  15.4,                                   !- May Surface Ground Temperature {C}
  19.4,                                   !- June Surface Ground Temperature {C}
  20.5,                                   !- July Surface Ground Temperature {C}
  18.5,                                   !- August Surface Ground Temperature {C}
  13.9,                                   !- September Surface Ground Temperature {C}
  8.1,                                    !- October Surface Ground Temperature {C}
  2.5,                                    !- November Surface Ground Temperature {C}
  -1.3;                                   !- December Surface Ground Temperature {C}

Site:WaterMainsTemperature,
  Correlation,                            !- Calculation Method
  ,                                       !- Temperature Schedule Name
  9.06666666666667,                       !- Annual Average Outdoor Air Temperature {C}
  25.2;                                   !- Maximum Difference In Monthly Average Outdoor Air Temperatures {deltaC}

SizingPeriod:DesignDay,
  Toronto Intl AP Ann Clg .4% Condns DB=>MWB, !- Name
  7,                                      !- Month
  21,                                     !- Day of Month
  SummerDesignDay,                        !- Day Type
  31.5,                                   !- Maximum Dry-Bulb Temperature {C}
  9.5,                                    !- Daily Dry-Bulb Temperature Range {deltaC}
  DefaultMultipliers,                     !- Dry-Bulb Temperature Range Modifier Type
  ,                                       !- Dry-Bulb Temperature Range Modifier Day Schedule Name
  Wetbulb,                                !- Humidity Condition Type
  22.4,                                   !- Wetbulb or DewPoint at Maximum Dry-Bulb {C}
  ,                                       !- Humidity Condition Day Schedule Name
  ,                                       !- Humidity Ratio at Maximum Dry-Bulb {kgWater/kgDryAir}
  ,                                       !- Enthalpy at Maximum Dry-Bulb {J/kg}
  ,                                       !- Daily Wet-Bulb Temperature Range {deltaC}
  99259,                                  !- Barometric Pressure {Pa}
  6,                                      !- Wind Speed {m/s}
  270,                                    !- Wind Direction {deg}
  No,                                     !- Rain Indicator
  No,                                     !- Snow Indicator
  No,                                     !- Daylight Saving Time Indicator
  ASHRAETau,                              !- Solar Model Indicator
  ,                                       !- Beam Solar Day Schedule Name
  ,                                       !- Diffuse Solar Day Schedule Name
  0.426,                                  !- ASHRAE Clear Sky Optical Depth for Beam Irradiance (taub) {dimensionless}
  2.27,                                   !- ASHRAE Clear Sky Optical Depth for Diffuse Irradiance (taud) {dimensionless}
  ,                                       !- Sky Clearness
  ,                                       !- Maximum Number Warmup Days
  FullResetAtBeginEnvironment;            !- Begin Environment Reset Mode

SizingPeriod:DesignDay,
  Toronto Intl AP Ann Clg .4% Condns WB=>MDB, !- Name
  7,                                      !- Month
  21,                                     !- Day of Month
  SummerDesignDay,                        !- Day Type
  29.2,                                   !- Maximum Dry-Bulb Temperature {C}
  9.5,                                    !- Daily Dry-Bulb Temperature Range {deltaC}
  DefaultMultipliers,                     !- Dry-Bulb Temperature Range Modifier Type
  ,                                       !- Dry-Bulb Temperature Range Modifier Day Schedule Name
  Wetbulb,                                !- Humidity Condition Type
  23.8,                                   !- Wetbulb or DewPoint at Maximum Dry-Bulb {C}
  ,                                       !- Humidity Condition Day Schedule Name
  ,                                       !- Humidity Ratio at Maximum Dry-Bulb {kgWater/kgDryAir}
  ,                                       !- Enthalpy at Maximum Dry-Bulb {J/kg}
  ,                                       !- Daily Wet-Bulb Temperature Range {deltaC}
  99259,                                  !- Barometric Pressure {Pa}
  6,                                      !- Wind Speed {m/s}
  270,                                    !- Wind Direction {deg}
  No,                                     !- Rain Indicator
  No,                                     !- Snow Indicator
  No,                                     !- Daylight Saving Time Indicator
  ASHRAETau,                              !- Solar Model Indicator
  ,                                       !- Beam Solar Day Schedule Name
  ,                                       !- Diffuse Solar Day Schedule Name
  0.426,                                  !- ASHRAE Clear Sky Optical Depth for Beam Irradiance (taub) {dimensionless}
  2.27,                                   !- ASHRAE Clear Sky Optical Depth for Diffuse Irradiance (taud) {dimensionless}
  ,                                       !- Sky Clearness
  ,                                       !- Maximum Number Warmup Days
  FullResetAtBeginEnvironment;            !- Begin Environment Reset Mode

SizingPeriod:DesignDay,
  Toronto Intl AP Ann Htg 99.6% Condns DB, !- Name
  1,                                      !- Month
  21,                                     !- Day of Month
  WinterDesignDay,                        !- Day Type
  -18.5,                                  !- Maximum Dry-Bulb Temperature {C}
  0,                                      !- Daily Dry-Bulb Temperature Range {deltaC}
  DefaultMultipliers,                     !- Dry-Bulb Temperature Range Modifier Type
  ,                                       !- Dry-Bulb Temperature Range Modifier Day Schedule Name
  Wetbulb,                                !- Humidity Condition Type
  -18.5,                                  !- Wetbulb or DewPoint at Maximum Dry-Bulb {C}
  ,                                       !- Humidity Condition Day Schedule Name
  ,                                       !- Humidity Ratio at Maximum Dry-Bulb {kgWater/kgDryAir}
  ,                                       !- Enthalpy at Maximum Dry-Bulb {J/kg}
  ,                                       !- Daily Wet-Bulb Temperature Range {deltaC}
  99259,                                  !- Barometric Pressure {Pa}
  5.3,                                    !- Wind Speed {m/s}
  0,                                      !- Wind Direction {deg}
  No,                                     !- Rain Indicator
  No,                                     !- Snow Indicator
  No,                                     !- Daylight Saving Time Indicator
  ASHRAEClearSky,                         !- Solar Model Indicator
  ,                                       !- Beam Solar Day Schedule Name
  ,                                       !- Diffuse Solar Day Schedule Name
  ,                                       !- ASHRAE Clear Sky Optical Depth for Beam Irradiance (taub) {dimensionless}
  ,                                       !- ASHRAE Clear Sky Optical Depth for Diffuse Irradiance (taud) {dimensionless}
  0,                                      !- Sky Clearness
  ,                                       !- Maximum Number Warmup Days
  FullResetAtBeginEnvironment;            !- Begin Environment Reset Mode

OutputControl:Table:Style,
  HTML;                                   !- Column Separator

Output:VariableDictionary,
  IDF,                                    !- Key Field
  Unsorted;                               !- Sort Option

Output:SQLite,
  SimpleAndTabular;                       !- Option Type

LifeCycleCost:NonrecurringCost,
  Default Cost,                           !- Name
  Construction,                           !- Category
  0,                                      !- Cost
  ServicePeriod;                          !- Start of Costs

Output:Table:Monthly,
  Building Energy Performance - Electricity, !- Name
  2,                                      !- Digits After Decimal
  InteriorLights:Electricity,             !- Variable or Meter Name 1
  SumOrAverage,                           !- Aggregation Type for Variable or Meter 1
  ExteriorLights:Electricity,             !- Variable or Meter Name 2
  SumOrAverage,                           !- Aggregation Type for Variable or Meter 2
  InteriorEquipment:Electricity,          !- Variable or Meter Name 3
  SumOrAverage,                           !- Aggregation Type for Variable or Meter 3
  ExteriorEquipment:Electricity,          !- Variable or Meter Name 4
  SumOrAverage,                           !- Aggregation Type for Variable or Meter 4
  Fans:Electricity,                       !- Variable or Meter Name 5
  SumOrAverage,                           !- Aggregation Type for Variable or Meter 5
  Pumps:Electricity,                      !- Variable or Meter Name 6
  SumOrAverage,                           !- Aggregation Type for Variable or Meter 6
  Heating:Electricity,                    !- Variable or Meter Name 7
  SumOrAverage,                           !- Aggregation Type for Variable or Meter 7
  Cooling:Electricity,                    !- Variable or Meter Name 8
  SumOrAverage,                           !- Aggregation Type for Variable or Meter 8
  HeatRejection:Electricity,              !- Variable or Meter Name 9
  SumOrAverage,                           !- Aggregation Type for Variable or Meter 9
  Humidifier:Electricity,                 !- Variable or Meter Name 10
  SumOrAverage,                           !- Aggregation Type for Variable or Meter 10
  HeatRecovery:Electricity,               !- Variable or Meter Name 11
  SumOrAverage,                           !- Aggregation Type for Variable or Meter 11
  WaterSystems:Electricity,               !- Variable or Meter Name 12
  SumOrAverage,                           !- Aggregation Type for Variable or Meter 12
  Cogeneration:Electricity,               !- Variable or Meter Name 13
  SumOrAverage,                           !- Aggregation Type for Variable or Meter 13
  Refrigeration:Electricity,              !- Variable or Meter Name 14
  SumOrAverage;                           !- Aggregation Type for Variable or Meter 14

Output:Table:Monthly,
  Building Energy Performance - Natural Gas, !- Name
  2,                                      !- Digits After Decimal
  InteriorEquipment:NaturalGas,           !- Variable or Meter Name 1
  SumOrAverage,                           !- Aggregation Type for Variable or Meter 1
  ExteriorEquipment:NaturalGas,           !- Variable or Meter Name 2
  SumOrAverage,                           !- Aggregation Type for Variable or Meter 2
  Heating:NaturalGas,                     !- Variable or Meter Name 3
  SumOrAverage,                           !- Aggregation Type for Variable or Meter 3
  Cooling:NaturalGas,                     !- Variable or Meter Name 4
  SumOrAverage,                           !- Aggregation Type for Variable or Meter 4
  WaterSystems:NaturalGas,                !- Variable or Meter Name 5
  SumOrAverage,                           !- Aggregation Type for Variable or Meter 5
  Cogeneration:NaturalGas,                !- Variable or Meter Name 6
  SumOrAverage;                           !- Aggregation Type for Variable or Meter 6

Output:Table:Monthly,
  Building Energy Performance - District Heating Water, !- Name
  2,                                      !- Digits After Decimal
  InteriorLights:DistrictHeatingWater,    !- Variable or Meter Name 1
  SumOrAverage,                           !- Aggregation Type for Variable or Meter 1
  ExteriorLights:DistrictHeatingWater,    !- Variable or Meter Name 2
  SumOrAverage,                           !- Aggregation Type for Variable or Meter 2
  InteriorEquipment:DistrictHeatingWater, !- Variable or Meter Name 3
  SumOrAverage,                           !- Aggregation Type for Variable or Meter 3
  ExteriorEquipment:DistrictHeatingWater, !- Variable or Meter Name 4
  SumOrAverage,                           !- Aggregation Type for Variable or Meter 4
  Fans:DistrictHeatingWater,              !- Variable or Meter Name 5
  SumOrAverage,                           !- Aggregation Type for Variable or Meter 5
  Pumps:DistrictHeatingWater,             !- Variable or Meter Name 6
  SumOrAverage,                           !- Aggregation Type for Variable or Meter 6
  Heating:DistrictHeatingWater,           !- Variable or Meter Name 7
  SumOrAverage,                           !- Aggregation Type for Variable or Meter 7
  Cooling:DistrictHeatingWater,           !- Variable or Meter Name 8
  SumOrAverage,                           !- Aggregation Type for Variable or Meter 8
  HeatRejection:DistrictHeatingWater,     !- Variable or Meter Name 9
  SumOrAverage,                           !- Aggregation Type for Variable or Meter 9
  Humidifier:DistrictHeatingWater,        !- Variable or Meter Name 10
  SumOrAverage,                           !- Aggregation Type for Variable or Meter 10
  HeatRecovery:DistrictHeatingWater,      !- Variable or Meter Name 11
  SumOrAverage,                           !- Aggregation Type for Variable or Meter 11
  WaterSystems:DistrictHeatingWater,      !- Variable or Meter Name 12
  SumOrAverage,                           !- Aggregation Type for Variable or Meter 12
  Cogeneration:DistrictHeatingWater,      !- Variable or Meter Name 13
  SumOrAverage;                           !- Aggregation Type for Variable or Meter 13

Output:Table:Monthly,
  Building Energy Performance - District Cooling, !- Name
  2,                                      !- Digits After Decimal
  InteriorLights:DistrictCooling,         !- Variable or Meter Name 1
  SumOrAverage,                           !- Aggregation Type for Variable or Meter 1
  ExteriorLights:DistrictCooling,         !- Variable or Meter Name 2
  SumOrAverage,                           !- Aggregation Type for Variable or Meter 2
  InteriorEquipment:DistrictCooling,      !- Variable or Meter Name 3
  SumOrAverage,                           !- Aggregation Type for Variable or Meter 3
  ExteriorEquipment:DistrictCooling,      !- Variable or Meter Name 4
  SumOrAverage,                           !- Aggregation Type for Variable or Meter 4
  Fans:DistrictCooling,                   !- Variable or Meter Name 5
  SumOrAverage,                           !- Aggregation Type for Variable or Meter 5
  Pumps:DistrictCooling,                  !- Variable or Meter Name 6
  SumOrAverage,                           !- Aggregation Type for Variable or Meter 6
  Heating:DistrictCooling,                !- Variable or Meter Name 7
  SumOrAverage,                           !- Aggregation Type for Variable or Meter 7
  Cooling:DistrictCooling,                !- Variable or Meter Name 8
  SumOrAverage,                           !- Aggregation Type for Variable or Meter 8
  HeatRejection:DistrictCooling,          !- Variable or Meter Name 9
  SumOrAverage,                           !- Aggregation Type for Variable or Meter 9
  Humidifier:DistrictCooling,             !- Variable or Meter Name 10
  SumOrAverage,                           !- Aggregation Type for Variable or Meter 10
  HeatRecovery:DistrictCooling,           !- Variable or Meter Name 11
  SumOrAverage,                           !- Aggregation Type for Variable or Meter 11
  WaterSystems:DistrictCooling,           !- Variable or Meter Name 12
  SumOrAverage,                           !- Aggregation Type for Variable or Meter 12
  Cogeneration:DistrictCooling,           !- Variable or Meter Name 13
  SumOrAverage;                           !- Aggregation Type for Variable or Meter 13

Output:Table:Monthly,
  Building Energy Performance - Electricity Peak Demand, !- Name
  2,                                      !- Digits After Decimal
  Electricity:Facility,                   !- Variable or Meter Name 1
  Maximum,                                !- Aggregation Type for Variable or Meter 1
  InteriorLights:Electricity,             !- Variable or Meter Name 2
  ValueWhenMaximumOrMinimum,              !- Aggregation Type for Variable or Meter 2
  ExteriorLights:Electricity,             !- Variable or Meter Name 3
  ValueWhenMaximumOrMinimum,              !- Aggregation Type for Variable or Meter 3
  InteriorEquipment:Electricity,          !- Variable or Meter Name 4
  ValueWhenMaximumOrMinimum,              !- Aggregation Type for Variable or Meter 4
  ExteriorEquipment:Electricity,          !- Variable or Meter Name 5
  ValueWhenMaximumOrMinimum,              !- Aggregation Type for Variable or Meter 5
  Fans:Electricity,                       !- Variable or Meter Name 6
  ValueWhenMaximumOrMinimum,              !- Aggregation Type for Variable or Meter 6
  Pumps:Electricity,                      !- Variable or Meter Name 7
  ValueWhenMaximumOrMinimum,              !- Aggregation Type for Variable or Meter 7
  Heating:Electricity,                    !- Variable or Meter Name 8
  ValueWhenMaximumOrMinimum,              !- Aggregation Type for Variable or Meter 8
  Cooling:Electricity,                    !- Variable or Meter Name 9
  ValueWhenMaximumOrMinimum,              !- Aggregation Type for Variable or Meter 9
  HeatRejection:Electricity,              !- Variable or Meter Name 10
  ValueWhenMaximumOrMinimum,              !- Aggregation Type for Variable or Meter 10
  Humidifier:Electricity,                 !- Variable or Meter Name 11
  ValueWhenMaximumOrMinimum,              !- Aggregation Type for Variable or Meter 11
  HeatRecovery:Electricity,               !- Variable or Meter Name 12
  ValueWhenMaximumOrMinimum,              !- Aggregation Type for Variable or Meter 12
  WaterSystems:Electricity,               !- Variable or Meter Name 13
  ValueWhenMaximumOrMinimum,              !- Aggregation Type for Variable or Meter 13
  Cogeneration:Electricity,               !- Variable or Meter Name 14
  ValueWhenMaximumOrMinimum,              !- Aggregation Type for Variable or Meter 14
  Refrigeration:Electricity,              !- Variable or Meter Name 15
  ValueWhenMaximumOrMinimum;              !- Aggregation Type for Variable or Meter 15

Output:Table:Monthly,
  Building Energy Performance - Natural Gas Peak Demand, !- Name
  2,                                      !- Digits After Decimal
  NaturalGas:Facility,                    !- Variable or Meter Name 1
  Maximum,                                !- Aggregation Type for Variable or Meter 1
  InteriorEquipment:NaturalGas,           !- Variable or Meter Name 2
  ValueWhenMaximumOrMinimum,              !- Aggregation Type for Variable or Meter 2
  ExteriorEquipment:NaturalGas,           !- Variable or Meter Name 3
  ValueWhenMaximumOrMinimum,              !- Aggregation Type for Variable or Meter 3
  Heating:NaturalGas,                     !- Variable or Meter Name 4
  ValueWhenMaximumOrMinimum,              !- Aggregation Type for Variable or Meter 4
  Cooling:NaturalGas,                     !- Variable or Meter Name 5
  ValueWhenMaximumOrMinimum,              !- Aggregation Type for Variable or Meter 5
  WaterSystems:NaturalGas,                !- Variable or Meter Name 6
  ValueWhenMaximumOrMinimum,              !- Aggregation Type for Variable or Meter 6
  Cogeneration:NaturalGas,                !- Variable or Meter Name 7
  ValueWhenMaximumOrMinimum;              !- Aggregation Type for Variable or Meter 7

Output:Table:Monthly,
  Building Energy Performance - District Heating Water Peak Demand, !- Name
  2,                                      !- Digits After Decimal
  DistrictHeatingWater:Facility,          !- Variable or Meter Name 1
  Maximum,                                !- Aggregation Type for Variable or Meter 1
  InteriorLights:DistrictHeatingWater,    !- Variable or Meter Name 2
  ValueWhenMaximumOrMinimum,              !- Aggregation Type for Variable or Meter 2
  ExteriorLights:DistrictHeatingWater,    !- Variable or Meter Name 3
  ValueWhenMaximumOrMinimum,              !- Aggregation Type for Variable or Meter 3
  InteriorEquipment:DistrictHeatingWater, !- Variable or Meter Name 4
  ValueWhenMaximumOrMinimum,              !- Aggregation Type for Variable or Meter 4
  ExteriorEquipment:DistrictHeatingWater, !- Variable or Meter Name 5
  ValueWhenMaximumOrMinimum,              !- Aggregation Type for Variable or Meter 5
  Fans:DistrictHeatingWater,              !- Variable or Meter Name 6
  ValueWhenMaximumOrMinimum,              !- Aggregation Type for Variable or Meter 6
  Pumps:DistrictHeatingWater,             !- Variable or Meter Name 7
  ValueWhenMaximumOrMinimum,              !- Aggregation Type for Variable or Meter 7
  Heating:DistrictHeatingWater,           !- Variable or Meter Name 8
  ValueWhenMaximumOrMinimum,              !- Aggregation Type for Variable or Meter 8
  Cooling:DistrictHeatingWater,           !- Variable or Meter Name 9
  ValueWhenMaximumOrMinimum,              !- Aggregation Type for Variable or Meter 9
  HeatRejection:DistrictHeatingWater,     !- Variable or Meter Name 10
  ValueWhenMaximumOrMinimum,              !- Aggregation Type for Variable or Meter 10
  Humidifier:DistrictHeatingWater,        !- Variable or Meter Name 11
  ValueWhenMaximumOrMinimum,              !- Aggregation Type for Variable or Meter 11
  HeatRecovery:DistrictHeatingWater,      !- Variable or Meter Name 12
  ValueWhenMaximumOrMinimum,              !- Aggregation Type for Variable or Meter 12
  WaterSystems:DistrictHeatingWater,      !- Variable or Meter Name 13
  ValueWhenMaximumOrMinimum,              !- Aggregation Type for Variable or Meter 13
  Cogeneration:DistrictHeatingWater,      !- Variable or Meter Name 14
  ValueWhenMaximumOrMinimum;              !- Aggregation Type for Variable or Meter 14

Output:Table:Monthly,
  Building Energy Performance - District Cooling Peak Demand, !- Name
  2,                                      !- Digits After Decimal
  DistrictCooling:Facility,               !- Variable or Meter Name 1
  Maximum,                                !- Aggregation Type for Variable or Meter 1
  InteriorLights:DistrictCooling,         !- Variable or Meter Name 2
  ValueWhenMaximumOrMinimum,              !- Aggregation Type for Variable or Meter 2
  ExteriorLights:DistrictCooling,         !- Variable or Meter Name 3
  ValueWhenMaximumOrMinimum,              !- Aggregation Type for Variable or Meter 3
  InteriorEquipment:DistrictCooling,      !- Variable or Meter Name 4
  ValueWhenMaximumOrMinimum,              !- Aggregation Type for Variable or Meter 4
  ExteriorEquipment:DistrictCooling,      !- Variable or Meter Name 5
  ValueWhenMaximumOrMinimum,              !- Aggregation Type for Variable or Meter 5
  Fans:DistrictCooling,                   !- Variable or Meter Name 6
  ValueWhenMaximumOrMinimum,              !- Aggregation Type for Variable or Meter 6
  Pumps:DistrictCooling,                  !- Variable or Meter Name 7
  ValueWhenMaximumOrMinimum,              !- Aggregation Type for Variable or Meter 7
  Heating:DistrictCooling,                !- Variable or Meter Name 8
  ValueWhenMaximumOrMinimum,              !- Aggregation Type for Variable or Meter 8
  Cooling:DistrictCooling,                !- Variable or Meter Name 9
  ValueWhenMaximumOrMinimum,              !- Aggregation Type for Variable or Meter 9
  HeatRejection:DistrictCooling,          !- Variable or Meter Name 10
  ValueWhenMaximumOrMinimum,              !- Aggregation Type for Variable or Meter 10
  Humidifier:DistrictCooling,             !- Variable or Meter Name 11
  ValueWhenMaximumOrMinimum,              !- Aggregation Type for Variable or Meter 11
  HeatRecovery:DistrictCooling,           !- Variable or Meter Name 12
  ValueWhenMaximumOrMinimum,              !- Aggregation Type for Variable or Meter 12
  WaterSystems:DistrictCooling,           !- Variable or Meter Name 13
  ValueWhenMaximumOrMinimum,              !- Aggregation Type for Variable or Meter 13
  Cogeneration:DistrictCooling,           !- Variable or Meter Name 14
  ValueWhenMaximumOrMinimum;              !- Aggregation Type for Variable or Meter 14

Output:Meter:MeterFileOnly,
  NaturalGas:Facility,                    !- Key Name
  Daily;                                  !- Reporting Frequency

Output:Meter:MeterFileOnly,
  Electricity:Facility,                   !- Key Name
  Timestep;                               !- Reporting Frequency

Output:Meter:MeterFileOnly,
  Electricity:Facility,                   !- Key Name
  Daily;                                  !- Reporting Frequency

Output:Meter,
  Electricity:Facility,                   !- Key Name
  Timestep;                               !- Reporting Frequency

Output:Meter,
  NaturalGas:Facility,                    !- Key Name
  Timestep;                               !- Reporting Frequency

Output:Meter,
  DistrictHeatingWater:Facility,          !- Key Name
  Timestep;                               !- Reporting Frequency

Output:Meter,
  DistrictCooling:Facility,               !- Key Name
  Timestep;                               !- Reporting Frequency

